    1C
    1UUSER                                                              
    1UDATE              31.december.2018                                
    1UTIME              14:03:48                                        
    1UHOST                                                              
    1UPGM               CalculiX                                        
    1UVERSION           Version 2.15                             
    1UCOMPILETIME       niedz., 16 gru 2018 14:14:23                    
    1UDIR                                                               
    1UDBN                                                               
    1UMAT    1EL                                                        
    2C                            20                                     1
 -1         1 1.00000E+00 1.00000E+00 0.00000E+00
 -1         2 1.00000E+00 0.00000E+00 0.00000E+00
 -1         3 1.00000E+00 0.00000E+00 1.00000E+00
 -1         4 1.00000E+00 1.00000E+00 1.00000E+00
 -1         5 0.00000E+00 1.00000E+00 0.00000E+00
 -1         6 0.00000E+00 0.00000E+00 0.00000E+00
 -1         7 0.00000E+00 0.00000E+00 1.00000E+00
 -1         8 0.00000E+00 1.00000E+00 1.00000E+00
 -1         9 1.00000E+00 5.00000E-01 0.00000E+00
 -1        10 1.00000E+00 0.00000E+00 5.00000E-01
 -1        11 1.00000E+00 5.00000E-01 1.00000E+00
 -1        12 1.00000E+00 1.00000E+00 5.00000E-01
 -1        13 5.00000E-01 1.00000E+00 0.00000E+00
 -1        14 5.00000E-01 0.00000E+00 0.00000E+00
 -1        15 5.00000E-01 0.00000E+00 1.00000E+00
 -1        16 5.00000E-01 1.00000E+00 1.00000E+00
 -1        17 0.00000E+00 5.00000E-01 0.00000E+00
 -1        18 0.00000E+00 0.00000E+00 5.00000E-01
 -1        19 0.00000E+00 5.00000E-01 1.00000E+00
 -1        20 0.00000E+00 1.00000E+00 5.00000E-01
 -3
    3C                             1                                     1
 -1         1    4    0    1
 -2         1         2         3         4         5         6         7         8         9        10
 -2        11        12        13        14        15        16        17        18        19        20
 -3
    1PSTEP                         1           1           1          
  100CL  101 16.13597621          20                     0    1           1
 -4  DISP        4    1
 -5  D1          1    2    1    0
 -5  D2          1    2    2    0
 -5  D3          1    2    3    0
 -5  ALL         1    2    0    0    1ALL
 -1         1 0.00000E+00 0.00000E+00 0.00000E+00
 -1         2 0.00000E+00 0.00000E+00 0.00000E+00
 -1         3 0.00000E+00 0.00000E+00 2.00000E-03
 -1         4 0.00000E+00 0.00000E+00 2.00000E-03
 -1         5 0.00000E+00 0.00000E+00 0.00000E+00
 -1         6 0.00000E+00 0.00000E+00 0.00000E+00
 -1         7 0.00000E+00 0.00000E+00 2.00000E-03
 -1         8 0.00000E+00 0.00000E+00 2.00000E-03
 -1         9 0.00000E+00 0.00000E+00 0.00000E+00
 -1        10 0.00000E+00 0.00000E+00 1.00000E-03
 -1        11 0.00000E+00 0.00000E+00 2.00000E-03
 -1        12 0.00000E+00 0.00000E+00 1.00000E-03
 -1        13 0.00000E+00 0.00000E+00 0.00000E+00
 -1        14 0.00000E+00 0.00000E+00 0.00000E+00
 -1        15 0.00000E+00 0.00000E+00 2.00000E-03
 -1        16 0.00000E+00 0.00000E+00 2.00000E-03
 -1        17 0.00000E+00 0.00000E+00 0.00000E+00
 -1        18 0.00000E+00 0.00000E+00 1.00000E-03
 -1        19 0.00000E+00 0.00000E+00 2.00000E-03
 -1        20 0.00000E+00 0.00000E+00 1.00000E-03
 -3
    1PSTEP                         2           1           1          
  100CL  101 16.13597621          20                     0    1           1
 -4  STRESS      6    1
 -5  SXX         1    4    1    1
 -5  SYY         1    4    2    2
 -5  SZZ         1    4    3    3
 -5  SXY         1    4    1    2
 -5  SYZ         1    4    2    3
 -5  SZX         1    4    3    1
 -1         1 1.55552E+02 1.55552E+02 2.88872E+02 0.00000E+00 2.75013E-14 4.79346E-14
 -1         2 1.55552E+02 1.55552E+02 2.88872E+02 0.00000E+00-4.32531E-14-5.39091E-14
 -1         3 1.55552E+02 1.55552E+02 2.88872E+02 0.00000E+00-6.72714E-15-7.98949E-14
 -1         4 1.55552E+02 1.55552E+02 2.88872E+02 0.00000E+00-1.53899E-14 1.17415E-13
 -1         5 1.55552E+02 1.55552E+02 2.88872E+02 0.00000E+00 1.97426E-14-1.68805E-14
 -1         6 1.55552E+02 1.55552E+02 2.88872E+02 0.00000E+00-1.42562E-14 5.77835E-16
 -1         7 1.55552E+02 1.55552E+02 2.88872E+02 0.00000E+00 1.28810E-13 9.41996E-14
 -1         8 1.55552E+02 1.55552E+02 2.88872E+02 0.00000E+00-1.95650E-16-2.50988E-14
 -1         9 1.55566E+02 1.55566E+02 2.88898E+02 0.00000E+00-2.79179E-14-1.36386E-14
 -1        10 1.55566E+02 1.55566E+02 2.88898E+02 0.00000E+00 2.93584E-14 2.56815E-14
 -1        11 1.55566E+02 1.55566E+02 2.88898E+02 0.00000E+00 1.69720E-14 1.49166E-14
 -1        12 1.55566E+02 1.55566E+02 2.88898E+02 0.00000E+00 1.61373E-14 1.14516E-14
 -1        13 1.55566E+02 1.55566E+02 2.88898E+02 0.00000E+00-1.14729E-14-1.68915E-15
 -1        14 1.55566E+02 1.55566E+02 2.88898E+02 0.00000E+00 2.73421E-14 5.96046E-15
 -1        15 1.55566E+02 1.55566E+02 2.88898E+02 0.00000E+00-7.75660E-14 1.66168E-14
 -1        16 1.55566E+02 1.55566E+02 2.88898E+02 0.00000E+00 2.96749E-14 2.78642E-14
 -1        17 1.55566E+02 1.55566E+02 2.88898E+02 0.00000E+00-3.24456E-15 1.51661E-14
 -1        18 1.55566E+02 1.55566E+02 2.88898E+02 0.00000E+00 4.06300E-14-5.23405E-14
 -1        19 1.55566E+02 1.55566E+02 2.88898E+02 0.00000E+00 3.48699E-14-7.47363E-15
 -1        20 1.55566E+02 1.55566E+02 2.88898E+02 0.00000E+00 1.53624E-14 2.97954E-14
 -3
    1PSTEP                         3           1           1          
  100CL  101 16.13597621          20                     0    1           1
 -4  TOSTRAIN    6    1
 -5  EXX         1    4    1    1
 -5  EYY         1    4    2    2
 -5  EZZ         1    4    3    3
 -5  EXY         1    4    1    2
 -5  EYZ         1    4    2    3
 -5  EZX         1    4    3    1
 -1         1 0.00000E+00 0.00000E+00 1.99992E-03 0.00000E+00 4.12546E-19 7.19066E-19
 -1         2 0.00000E+00 0.00000E+00 1.99992E-03 0.00000E+00-6.48839E-19-8.08690E-19
 -1         3 0.00000E+00 0.00000E+00 1.99992E-03 0.00000E+00-1.00914E-19-1.19850E-18
 -1         4 0.00000E+00 0.00000E+00 1.99992E-03 0.00000E+00-2.30863E-19 1.76134E-18
 -1         5 0.00000E+00 0.00000E+00 1.99992E-03 0.00000E+00 2.96159E-19-2.53224E-19
 -1         6 0.00000E+00 0.00000E+00 1.99992E-03 0.00000E+00-2.13856E-19 8.66809E-21
 -1         7 0.00000E+00 0.00000E+00 1.99992E-03 0.00000E+00 1.93228E-18 1.41309E-18
 -1         8 0.00000E+00 0.00000E+00 1.99992E-03 0.00000E+00-2.93494E-21-3.76507E-19
 -1         9 0.00000E+00 0.00000E+00 2.00010E-03 0.00000E+00-4.18795E-19-2.04593E-19
 -1        10 0.00000E+00 0.00000E+00 2.00010E-03 0.00000E+00 4.40404E-19 3.85247E-19
 -1        11 0.00000E+00 0.00000E+00 2.00010E-03 0.00000E+00 2.54597E-19 2.23763E-19
 -1        12 0.00000E+00 0.00000E+00 2.00010E-03 0.00000E+00 2.42075E-19 1.71784E-19
 -1        13 0.00000E+00 0.00000E+00 2.00010E-03 0.00000E+00-1.72104E-19-2.53389E-20
 -1        14 0.00000E+00 0.00000E+00 2.00010E-03 0.00000E+00 4.10158E-19 8.94127E-20
 -1        15 0.00000E+00 0.00000E+00 2.00010E-03 0.00000E+00-1.16356E-18 2.49269E-19
 -1        16 0.00000E+00 0.00000E+00 2.00010E-03 0.00000E+00 4.45153E-19 4.17991E-19
 -1        17 0.00000E+00 0.00000E+00 2.00010E-03 0.00000E+00-4.86716E-20 2.27507E-19
 -1        18 0.00000E+00 0.00000E+00 2.00010E-03 0.00000E+00 6.09490E-19-7.85158E-19
 -1        19 0.00000E+00 0.00000E+00 2.00010E-03 0.00000E+00 5.23083E-19-1.12112E-19
 -1        20 0.00000E+00 0.00000E+00 2.00010E-03 0.00000E+00 2.30452E-19 4.46960E-19
 -3
    1PSTEP                         4           1           1          
  100CL  101 16.13597621          20                     0    1           1
 -4  FORC        4    1
 -5  F1          1    2    1    0
 -5  F2          1    2    2    0
 -5  F3          1    2    3    0
 -5  ALL         1    2    0    0    1ALL
 -1         1-1.29632E+01-1.29632E+01 2.40736E+01
 -1         2-1.29632E+01 1.29632E+01 2.40736E+01
 -1         3-1.29632E+01 1.29632E+01-2.40736E+01
 -1         4-1.29632E+01-1.29632E+01-2.40736E+01
 -1         5 1.29632E+01-1.29632E+01 2.40736E+01
 -1         6 1.29632E+01 1.29632E+01 2.40736E+01
 -1         7 1.29632E+01 1.29632E+01-2.40736E+01
 -1         8 1.29632E+01-1.29632E+01-2.40736E+01
 -1         9 5.18528E+01-8.59411E-15-9.62944E+01
 -1        10 5.18528E+01-5.18528E+01 1.11022E-15
 -1        11 5.18528E+01 4.93037E-15 9.62944E+01
 -1        12 5.18528E+01 5.18528E+01 2.13440E-14
 -1        13-1.14667E-14 5.18528E+01-9.62944E+01
 -1        14 5.96983E-15-5.18528E+01-9.62944E+01
 -1        15 3.80013E-15-5.18528E+01 9.62944E+01
 -1        16-2.85515E-15 5.18528E+01 9.62944E+01
 -1        17-5.18528E+01-3.57377E-16-9.62944E+01
 -1        18-5.18528E+01-5.18528E+01 0.00000E+00
 -1        19-5.18528E+01 3.57377E-16 9.62944E+01
 -1        20-5.18528E+01 5.18528E+01 9.32587E-15
 -3
    1PSTEP                         5           1           1          
  100CL  101 16.13597621          20                     0    1           1
 -4  ERROR       1    1
 -5  STR(%)      1    1    0    0
 -1         1 7.04534E-15
 -1         2 7.04534E-15
 -1         3 7.04534E-15
 -1         4 7.04534E-15
 -1         5 7.04534E-15
 -1         6 7.04534E-15
 -1         7 7.04534E-15
 -1         8 7.04534E-15
 -1         9 7.04534E-15
 -1        10 7.04534E-15
 -1        11 7.04534E-15
 -1        12 7.04534E-15
 -1        13 7.04534E-15
 -1        14 7.04534E-15
 -1        15 7.04534E-15
 -1        16 7.04534E-15
 -1        17 7.04534E-15
 -1        18 7.04534E-15
 -1        19 7.04534E-15
 -1        20 7.04534E-15
 -3
    1PSTEP                         6           2           1          
  100CL  102 32.27195241          20                     0    2           1
 -4  DISP        4    1
 -5  D1          1    2    1    0
 -5  D2          1    2    2    0
 -5  D3          1    2    3    0
 -5  ALL         1    2    0    0    1ALL
 -1         1 0.00000E+00 0.00000E+00 0.00000E+00
 -1         2 0.00000E+00 0.00000E+00 0.00000E+00
 -1         3 0.00000E+00 0.00000E+00 2.00000E-03
 -1         4 0.00000E+00 0.00000E+00 2.00000E-03
 -1         5 0.00000E+00 0.00000E+00 0.00000E+00
 -1         6 0.00000E+00 0.00000E+00 0.00000E+00
 -1         7 0.00000E+00 0.00000E+00 2.00000E-03
 -1         8 0.00000E+00 0.00000E+00 2.00000E-03
 -1         9 0.00000E+00 0.00000E+00 0.00000E+00
 -1        10 0.00000E+00 0.00000E+00 1.00000E-03
 -1        11 0.00000E+00 0.00000E+00 2.00000E-03
 -1        12 0.00000E+00 0.00000E+00 1.00000E-03
 -1        13 0.00000E+00 0.00000E+00 0.00000E+00
 -1        14 0.00000E+00 0.00000E+00 0.00000E+00
 -1        15 0.00000E+00 0.00000E+00 2.00000E-03
 -1        16 0.00000E+00 0.00000E+00 2.00000E-03
 -1        17 0.00000E+00 0.00000E+00 0.00000E+00
 -1        18 0.00000E+00 0.00000E+00 1.00000E-03
 -1        19 0.00000E+00 0.00000E+00 2.00000E-03
 -1        20 0.00000E+00 0.00000E+00 1.00000E-03
 -3
    1PSTEP                         7           2           1          
  100CL  102 32.27195241          20                     0    2           1
 -4  STRESS      6    1
 -5  SXX         1    4    1    1
 -5  SYY         1    4    2    2
 -5  SZZ         1    4    3    3
 -5  SXY         1    4    1    2
 -5  SYZ         1    4    2    3
 -5  SZX         1    4    3    1
 -1         1 1.55555E+02 1.55555E+02 2.88866E+02 0.00000E+00 2.74995E-14 4.79315E-14
 -1         2 1.55555E+02 1.55555E+02 2.88866E+02 0.00000E+00-4.32503E-14-5.39056E-14
 -1         3 1.55555E+02 1.55555E+02 2.88866E+02 0.00000E+00-6.72671E-15-7.98898E-14
 -1         4 1.55555E+02 1.55555E+02 2.88866E+02 0.00000E+00-1.53889E-14 1.17407E-13
 -1         5 1.55555E+02 1.55555E+02 2.88866E+02 0.00000E+00 1.97413E-14-1.68794E-14
 -1         6 1.55555E+02 1.55555E+02 2.88866E+02 0.00000E+00-1.42552E-14 5.77798E-16
 -1         7 1.55555E+02 1.55555E+02 2.88866E+02 0.00000E+00 1.28802E-13 9.41935E-14
 -1         8 1.55555E+02 1.55555E+02 2.88866E+02 0.00000E+00-1.95637E-16-2.50972E-14
 -1         9 1.55569E+02 1.55569E+02 2.88892E+02 0.00000E+00-2.79161E-14-1.36378E-14
 -1        10 1.55569E+02 1.55569E+02 2.88892E+02 0.00000E+00 2.93565E-14 2.56798E-14
 -1        11 1.55569E+02 1.55569E+02 2.88892E+02 0.00000E+00 1.69709E-14 1.49156E-14
 -1        12 1.55569E+02 1.55569E+02 2.88892E+02 0.00000E+00 1.61362E-14 1.14508E-14
 -1        13 1.55569E+02 1.55569E+02 2.88892E+02 0.00000E+00-1.14721E-14-1.68904E-15
 -1        14 1.55569E+02 1.55569E+02 2.88892E+02 0.00000E+00 2.73404E-14 5.96007E-15
 -1        15 1.55569E+02 1.55569E+02 2.88892E+02 0.00000E+00-7.75609E-14 1.66158E-14
 -1        16 1.55569E+02 1.55569E+02 2.88892E+02 0.00000E+00 2.96730E-14 2.78624E-14
 -1        17 1.55569E+02 1.55569E+02 2.88892E+02 0.00000E+00-3.24435E-15 1.51652E-14
 -1        18 1.55569E+02 1.55569E+02 2.88892E+02 0.00000E+00 4.06274E-14-5.23371E-14
 -1        19 1.55569E+02 1.55569E+02 2.88892E+02 0.00000E+00 3.48677E-14-7.47314E-15
 -1        20 1.55569E+02 1.55569E+02 2.88892E+02 0.00000E+00 1.53614E-14 2.97935E-14
 -3
    1PSTEP                         8           2           1          
  100CL  102 32.27195241          20                     0    2           1
 -4  TOSTRAIN    6    1
 -5  EXX         1    4    1    1
 -5  EYY         1    4    2    2
 -5  EZZ         1    4    3    3
 -5  EXY         1    4    1    2
 -5  EYZ         1    4    2    3
 -5  EZX         1    4    3    1
 -1         1 0.00000E+00 0.00000E+00 1.99992E-03 0.00000E+00 4.12546E-19 7.19066E-19
 -1         2 0.00000E+00 0.00000E+00 1.99992E-03 0.00000E+00-6.48839E-19-8.08690E-19
 -1         3 0.00000E+00 0.00000E+00 1.99992E-03 0.00000E+00-1.00914E-19-1.19850E-18
 -1         4 0.00000E+00 0.00000E+00 1.99992E-03 0.00000E+00-2.30863E-19 1.76134E-18
 -1         5 0.00000E+00 0.00000E+00 1.99992E-03 0.00000E+00 2.96159E-19-2.53224E-19
 -1         6 0.00000E+00 0.00000E+00 1.99992E-03 0.00000E+00-2.13856E-19 8.66809E-21
 -1         7 0.00000E+00 0.00000E+00 1.99992E-03 0.00000E+00 1.93228E-18 1.41309E-18
 -1         8 0.00000E+00 0.00000E+00 1.99992E-03 0.00000E+00-2.93494E-21-3.76507E-19
 -1         9 0.00000E+00 0.00000E+00 2.00010E-03 0.00000E+00-4.18795E-19-2.04593E-19
 -1        10 0.00000E+00 0.00000E+00 2.00010E-03 0.00000E+00 4.40404E-19 3.85247E-19
 -1        11 0.00000E+00 0.00000E+00 2.00010E-03 0.00000E+00 2.54597E-19 2.23763E-19
 -1        12 0.00000E+00 0.00000E+00 2.00010E-03 0.00000E+00 2.42075E-19 1.71784E-19
 -1        13 0.00000E+00 0.00000E+00 2.00010E-03 0.00000E+00-1.72104E-19-2.53389E-20
 -1        14 0.00000E+00 0.00000E+00 2.00010E-03 0.00000E+00 4.10158E-19 8.94127E-20
 -1        15 0.00000E+00 0.00000E+00 2.00010E-03 0.00000E+00-1.16356E-18 2.49269E-19
 -1        16 0.00000E+00 0.00000E+00 2.00010E-03 0.00000E+00 4.45153E-19 4.17991E-19
 -1        17 0.00000E+00 0.00000E+00 2.00010E-03 0.00000E+00-4.86716E-20 2.27507E-19
 -1        18 0.00000E+00 0.00000E+00 2.00010E-03 0.00000E+00 6.09490E-19-7.85158E-19
 -1        19 0.00000E+00 0.00000E+00 2.00010E-03 0.00000E+00 5.23083E-19-1.12112E-19
 -1        20 0.00000E+00 0.00000E+00 2.00010E-03 0.00000E+00 2.30452E-19 4.46960E-19
 -3
    1PSTEP                         9           2           1          
  100CL  102 32.27195241          20                     0    2           1
 -4  FORC        4    1
 -5  F1          1    2    1    0
 -5  F2          1    2    2    0
 -5  F3          1    2    3    0
 -5  ALL         1    2    0    0    1ALL
 -1         1-1.29634E+01-1.29634E+01 2.40731E+01
 -1         2-1.29634E+01 1.29634E+01 2.40731E+01
 -1         3-1.29634E+01 1.29634E+01-2.40731E+01
 -1         4-1.29634E+01-1.29634E+01-2.40731E+01
 -1         5 1.29634E+01-1.29634E+01 2.40731E+01
 -1         6 1.29634E+01 1.29634E+01 2.40731E+01
 -1         7 1.29634E+01 1.29634E+01-2.40731E+01
 -1         8 1.29634E+01-1.29634E+01-2.40731E+01
 -1         9 5.18538E+01-7.84471E-15-9.62924E+01
 -1        10 5.18538E+01-5.18538E+01 1.53211E-14
 -1        11 5.18538E+01 4.48628E-15 9.62924E+01
 -1        12 5.18538E+01 5.18538E+01 2.65343E-14
 -1        13-4.77763E-15 5.18538E+01-9.62924E+01
 -1        14 1.24091E-14-5.18538E+01-9.62924E+01
 -1        15-1.52896E-15-5.18538E+01 9.62924E+01
 -1        16-3.74333E-15 5.18538E+01 9.62924E+01
 -1        17-5.18538E+01 5.30825E-16-9.62924E+01
 -1        18-5.18538E+01-5.18538E+01 1.77636E-15
 -1        19-5.18538E+01 3.91007E-15 9.62924E+01
 -1        20-5.18538E+01 5.18538E+01 5.99520E-15
 -3
    1PSTEP                        10           2           1          
  100CL  102 32.27195241          20                     0    2           1
 -4  ERROR       1    1
 -5  STR(%)      1    1    0    0
 -1         1 6.03898E-15
 -1         2 6.03898E-15
 -1         3 6.03898E-15
 -1         4 6.03898E-15
 -1         5 6.03898E-15
 -1         6 6.03898E-15
 -1         7 6.03898E-15
 -1         8 6.03898E-15
 -1         9 6.03898E-15
 -1        10 6.03898E-15
 -1        11 6.03898E-15
 -1        12 6.03898E-15
 -1        13 6.03898E-15
 -1        14 6.03898E-15
 -1        15 6.03898E-15
 -1        16 6.03898E-15
 -1        17 6.03898E-15
 -1        18 6.03898E-15
 -1        19 6.03898E-15
 -1        20 6.03898E-15
 -3
    1PSTEP                        11           3           1          
  100CL  103 56.47591672          20                     0    3           1
 -4  DISP        4    1
 -5  D1          1    2    1    0
 -5  D2          1    2    2    0
 -5  D3          1    2    3    0
 -5  ALL         1    2    0    0    1ALL
 -1         1 0.00000E+00 0.00000E+00 0.00000E+00
 -1         2 0.00000E+00 0.00000E+00 0.00000E+00
 -1         3 0.00000E+00 0.00000E+00 2.00000E-03
 -1         4 0.00000E+00 0.00000E+00 2.00000E-03
 -1         5 0.00000E+00 0.00000E+00 0.00000E+00
 -1         6 0.00000E+00 0.00000E+00 0.00000E+00
 -1         7 0.00000E+00 0.00000E+00 2.00000E-03
 -1         8 0.00000E+00 0.00000E+00 2.00000E-03
 -1         9 0.00000E+00 0.00000E+00 0.00000E+00
 -1        10 0.00000E+00 0.00000E+00 1.00000E-03
 -1        11 0.00000E+00 0.00000E+00 2.00000E-03
 -1        12 0.00000E+00 0.00000E+00 1.00000E-03
 -1        13 0.00000E+00 0.00000E+00 0.00000E+00
 -1        14 0.00000E+00 0.00000E+00 0.00000E+00
 -1        15 0.00000E+00 0.00000E+00 2.00000E-03
 -1        16 0.00000E+00 0.00000E+00 2.00000E-03
 -1        17 0.00000E+00 0.00000E+00 0.00000E+00
 -1        18 0.00000E+00 0.00000E+00 1.00000E-03
 -1        19 0.00000E+00 0.00000E+00 2.00000E-03
 -1        20 0.00000E+00 0.00000E+00 1.00000E-03
 -3
    1PSTEP                        12           3           1          
  100CL  103 56.47591672          20                     0    3           1
 -4  STRESS      6    1
 -5  SXX         1    4    1    1
 -5  SYY         1    4    2    2
 -5  SZZ         1    4    3    3
 -5  SXY         1    4    1    2
 -5  SYZ         1    4    2    3
 -5  SZX         1    4    3    1
 -1         1 1.55559E+02 1.55559E+02 2.88857E+02 0.00000E+00 2.74968E-14 4.79268E-14
 -1         2 1.55559E+02 1.55559E+02 2.88857E+02 0.00000E+00-4.32461E-14-5.39004E-14
 -1         3 1.55559E+02 1.55559E+02 2.88857E+02 0.00000E+00-6.72605E-15-7.98820E-14
 -1         4 1.55559E+02 1.55559E+02 2.88857E+02 0.00000E+00-1.53874E-14 1.17396E-13
 -1         5 1.55559E+02 1.55559E+02 2.88857E+02 0.00000E+00 1.97394E-14-1.68778E-14
 -1         6 1.55559E+02 1.55559E+02 2.88857E+02 0.00000E+00-1.42538E-14 5.77742E-16
 -1         7 1.55559E+02 1.55559E+02 2.88857E+02 0.00000E+00 1.28790E-13 9.41843E-14
 -1         8 1.55559E+02 1.55559E+02 2.88857E+02 0.00000E+00-1.95618E-16-2.50948E-14
 -1         9 1.55573E+02 1.55573E+02 2.88883E+02 0.00000E+00-2.79133E-14-1.36364E-14
 -1        10 1.55573E+02 1.55573E+02 2.88883E+02 0.00000E+00 2.93536E-14 2.56773E-14
 -1        11 1.55573E+02 1.55573E+02 2.88883E+02 0.00000E+00 1.69693E-14 1.49142E-14
 -1        12 1.55573E+02 1.55573E+02 2.88883E+02 0.00000E+00 1.61346E-14 1.14497E-14
 -1        13 1.55573E+02 1.55573E+02 2.88883E+02 0.00000E+00-1.14710E-14-1.68888E-15
 -1        14 1.55573E+02 1.55573E+02 2.88883E+02 0.00000E+00 2.73377E-14 5.95949E-15
 -1        15 1.55573E+02 1.55573E+02 2.88883E+02 0.00000E+00-7.75534E-14 1.66142E-14
 -1        16 1.55573E+02 1.55573E+02 2.88883E+02 0.00000E+00 2.96701E-14 2.78597E-14
 -1        17 1.55573E+02 1.55573E+02 2.88883E+02 0.00000E+00-3.24404E-15 1.51637E-14
 -1        18 1.55573E+02 1.55573E+02 2.88883E+02 0.00000E+00 4.06235E-14-5.23320E-14
 -1        19 1.55573E+02 1.55573E+02 2.88883E+02 0.00000E+00 3.48643E-14-7.47241E-15
 -1        20 1.55573E+02 1.55573E+02 2.88883E+02 0.00000E+00 1.53600E-14 2.97906E-14
 -3
    1PSTEP                        13           3           1          
  100CL  103 56.47591672          20                     0    3           1
 -4  TOSTRAIN    6    1
 -5  EXX         1    4    1    1
 -5  EYY         1    4    2    2
 -5  EZZ         1    4    3    3
 -5  EXY         1    4    1    2
 -5  EYZ         1    4    2    3
 -5  EZX         1    4    3    1
 -1         1 0.00000E+00 0.00000E+00 1.99992E-03 0.00000E+00 4.12546E-19 7.19066E-19
 -1         2 0.00000E+00 0.00000E+00 1.99992E-03 0.00000E+00-6.48839E-19-8.08690E-19
 -1         3 0.00000E+00 0.00000E+00 1.99992E-03 0.00000E+00-1.00914E-19-1.19850E-18
 -1         4 0.00000E+00 0.00000E+00 1.99992E-03 0.00000E+00-2.30863E-19 1.76134E-18
 -1         5 0.00000E+00 0.00000E+00 1.99992E-03 0.00000E+00 2.96159E-19-2.53224E-19
 -1         6 0.00000E+00 0.00000E+00 1.99992E-03 0.00000E+00-2.13856E-19 8.66809E-21
 -1         7 0.00000E+00 0.00000E+00 1.99992E-03 0.00000E+00 1.93228E-18 1.41309E-18
 -1         8 0.00000E+00 0.00000E+00 1.99992E-03 0.00000E+00-2.93494E-21-3.76507E-19
 -1         9 0.00000E+00 0.00000E+00 2.00010E-03 0.00000E+00-4.18795E-19-2.04593E-19
 -1        10 0.00000E+00 0.00000E+00 2.00010E-03 0.00000E+00 4.40404E-19 3.85247E-19
 -1        11 0.00000E+00 0.00000E+00 2.00010E-03 0.00000E+00 2.54597E-19 2.23763E-19
 -1        12 0.00000E+00 0.00000E+00 2.00010E-03 0.00000E+00 2.42075E-19 1.71784E-19
 -1        13 0.00000E+00 0.00000E+00 2.00010E-03 0.00000E+00-1.72104E-19-2.53389E-20
 -1        14 0.00000E+00 0.00000E+00 2.00010E-03 0.00000E+00 4.10158E-19 8.94127E-20
 -1        15 0.00000E+00 0.00000E+00 2.00010E-03 0.00000E+00-1.16356E-18 2.49269E-19
 -1        16 0.00000E+00 0.00000E+00 2.00010E-03 0.00000E+00 4.45153E-19 4.17991E-19
 -1        17 0.00000E+00 0.00000E+00 2.00010E-03 0.00000E+00-4.86716E-20 2.27507E-19
 -1        18 0.00000E+00 0.00000E+00 2.00010E-03 0.00000E+00 6.09490E-19-7.85158E-19
 -1        19 0.00000E+00 0.00000E+00 2.00010E-03 0.00000E+00 5.23083E-19-1.12112E-19
 -1        20 0.00000E+00 0.00000E+00 2.00010E-03 0.00000E+00 2.30452E-19 4.46960E-19
 -3
    1PSTEP                        14           3           1          
  100CL  103 56.47591672          20                     0    3           1
 -4  FORC        4    1
 -5  F1          1    2    1    0
 -5  F2          1    2    2    0
 -5  F3          1    2    3    0
 -5  ALL         1    2    0    0    1ALL
 -1         1-1.29638E+01-1.29638E+01 2.40724E+01
 -1         2-1.29638E+01 1.29638E+01 2.40724E+01
 -1         3-1.29638E+01 1.29638E+01-2.40724E+01
 -1         4-1.29638E+01-1.29638E+01-2.40724E+01
 -1         5 1.29638E+01-1.29638E+01 2.40724E+01
 -1         6 1.29638E+01 1.29638E+01 2.40724E+01
 -1         7 1.29638E+01 1.29638E+01-2.40724E+01
 -1         8 1.29638E+01-1.29638E+01-2.40724E+01
 -1         9 5.18552E+01-7.84470E-15-9.62896E+01
 -1        10 5.18552E+01-5.18552E+01-1.99840E-15
 -1        11 5.18552E+01 7.15081E-15 9.62896E+01
 -1        12 5.18552E+01 5.18552E+01 2.00395E-14
 -1        13 2.18903E-15 5.18552E+01-9.62896E+01
 -1        14 8.19032E-15-5.18552E+01-9.62896E+01
 -1        15-3.30534E-15-5.18552E+01 9.62896E+01
 -1        16-1.52289E-15 5.18552E+01 9.62896E+01
 -1        17-5.18552E+01-3.57319E-16-9.62896E+01
 -1        18-5.18552E+01-5.18552E+01-1.77636E-15
 -1        19-5.18552E+01 3.57319E-16 9.62896E+01
 -1        20-5.18552E+01 5.18552E+01 0.00000E+00
 -3
    1PSTEP                        15           3           1          
  100CL  103 56.47591672          20                     0    3           1
 -4  ERROR       1    1
 -5  STR(%)      1    1    0    0
 -1         1 1.10718E-14
 -1         2 1.10718E-14
 -1         3 1.10718E-14
 -1         4 1.10718E-14
 -1         5 1.10718E-14
 -1         6 1.10718E-14
 -1         7 1.10718E-14
 -1         8 1.10718E-14
 -1         9 1.10718E-14
 -1        10 1.10718E-14
 -1        11 1.10718E-14
 -1        12 1.10718E-14
 -1        13 1.10718E-14
 -1        14 1.10718E-14
 -1        15 1.10718E-14
 -1        16 1.10718E-14
 -1        17 1.10718E-14
 -1        18 1.10718E-14
 -1        19 1.10718E-14
 -1        20 1.10718E-14
 -3
    1PSTEP                        16           4           1          
  100CL  104 92.78186318          20                     0    4           1
 -4  DISP        4    1
 -5  D1          1    2    1    0
 -5  D2          1    2    2    0
 -5  D3          1    2    3    0
 -5  ALL         1    2    0    0    1ALL
 -1         1 0.00000E+00 0.00000E+00 0.00000E+00
 -1         2 0.00000E+00 0.00000E+00 0.00000E+00
 -1         3 0.00000E+00 0.00000E+00 2.00000E-03
 -1         4 0.00000E+00 0.00000E+00 2.00000E-03
 -1         5 0.00000E+00 0.00000E+00 0.00000E+00
 -1         6 0.00000E+00 0.00000E+00 0.00000E+00
 -1         7 0.00000E+00 0.00000E+00 2.00000E-03
 -1         8 0.00000E+00 0.00000E+00 2.00000E-03
 -1         9 0.00000E+00 0.00000E+00 0.00000E+00
 -1        10 0.00000E+00 0.00000E+00 1.00000E-03
 -1        11 0.00000E+00 0.00000E+00 2.00000E-03
 -1        12 0.00000E+00 0.00000E+00 1.00000E-03
 -1        13 0.00000E+00 0.00000E+00 0.00000E+00
 -1        14 0.00000E+00 0.00000E+00 0.00000E+00
 -1        15 0.00000E+00 0.00000E+00 2.00000E-03
 -1        16 0.00000E+00 0.00000E+00 2.00000E-03
 -1        17 0.00000E+00 0.00000E+00 0.00000E+00
 -1        18 0.00000E+00 0.00000E+00 1.00000E-03
 -1        19 0.00000E+00 0.00000E+00 2.00000E-03
 -1        20 0.00000E+00 0.00000E+00 1.00000E-03
 -3
    1PSTEP                        17           4           1          
  100CL  104 92.78186318          20                     0    4           1
 -4  STRESS      6    1
 -5  SXX         1    4    1    1
 -5  SYY         1    4    2    2
 -5  SZZ         1    4    3    3
 -5  SXY         1    4    1    2
 -5  SYZ         1    4    2    3
 -5  SZX         1    4    3    1
 -1         1 1.55566E+02 1.55566E+02 2.88844E+02 0.00000E+00 2.74928E-14 4.79198E-14
 -1         2 1.55566E+02 1.55566E+02 2.88844E+02 0.00000E+00-4.32398E-14-5.38925E-14
 -1         3 1.55566E+02 1.55566E+02 2.88844E+02 0.00000E+00-6.72507E-15-7.98703E-14
 -1         4 1.55566E+02 1.55566E+02 2.88844E+02 0.00000E+00-1.53851E-14 1.17379E-13
 -1         5 1.55566E+02 1.55566E+02 2.88844E+02 0.00000E+00 1.97365E-14-1.68753E-14
 -1         6 1.55566E+02 1.55566E+02 2.88844E+02 0.00000E+00-1.42518E-14 5.77657E-16
 -1         7 1.55566E+02 1.55566E+02 2.88844E+02 0.00000E+00 1.28771E-13 9.41706E-14
 -1         8 1.55566E+02 1.55566E+02 2.88844E+02 0.00000E+00-1.95589E-16-2.50911E-14
 -1         9 1.55580E+02 1.55580E+02 2.88870E+02 0.00000E+00-2.79093E-14-1.36344E-14
 -1        10 1.55580E+02 1.55580E+02 2.88870E+02 0.00000E+00 2.93493E-14 2.56736E-14
 -1        11 1.55580E+02 1.55580E+02 2.88870E+02 0.00000E+00 1.69668E-14 1.49120E-14
 -1        12 1.55580E+02 1.55580E+02 2.88870E+02 0.00000E+00 1.61323E-14 1.14480E-14
 -1        13 1.55580E+02 1.55580E+02 2.88870E+02 0.00000E+00-1.14693E-14-1.68863E-15
 -1        14 1.55580E+02 1.55580E+02 2.88870E+02 0.00000E+00 2.73337E-14 5.95862E-15
 -1        15 1.55580E+02 1.55580E+02 2.88870E+02 0.00000E+00-7.75421E-14 1.66117E-14
 -1        16 1.55580E+02 1.55580E+02 2.88870E+02 0.00000E+00 2.96658E-14 2.78557E-14
 -1        17 1.55580E+02 1.55580E+02 2.88870E+02 0.00000E+00-3.24356E-15 1.51615E-14
 -1        18 1.55580E+02 1.55580E+02 2.88870E+02 0.00000E+00 4.06175E-14-5.23244E-14
 -1        19 1.55580E+02 1.55580E+02 2.88870E+02 0.00000E+00 3.48592E-14-7.47132E-15
 -1        20 1.55580E+02 1.55580E+02 2.88870E+02 0.00000E+00 1.53577E-14 2.97862E-14
 -3
    1PSTEP                        18           4           1          
  100CL  104 92.78186318          20                     0    4           1
 -4  TOSTRAIN    6    1
 -5  EXX         1    4    1    1
 -5  EYY         1    4    2    2
 -5  EZZ         1    4    3    3
 -5  EXY         1    4    1    2
 -5  EYZ         1    4    2    3
 -5  EZX         1    4    3    1
 -1         1 0.00000E+00 0.00000E+00 1.99992E-03 0.00000E+00 4.12546E-19 7.19066E-19
 -1         2 0.00000E+00 0.00000E+00 1.99992E-03 0.00000E+00-6.48839E-19-8.08690E-19
 -1         3 0.00000E+00 0.00000E+00 1.99992E-03 0.00000E+00-1.00914E-19-1.19850E-18
 -1         4 0.00000E+00 0.00000E+00 1.99992E-03 0.00000E+00-2.30863E-19 1.76134E-18
 -1         5 0.00000E+00 0.00000E+00 1.99992E-03 0.00000E+00 2.96159E-19-2.53224E-19
 -1         6 0.00000E+00 0.00000E+00 1.99992E-03 0.00000E+00-2.13856E-19 8.66809E-21
 -1         7 0.00000E+00 0.00000E+00 1.99992E-03 0.00000E+00 1.93228E-18 1.41309E-18
 -1         8 0.00000E+00 0.00000E+00 1.99992E-03 0.00000E+00-2.93494E-21-3.76507E-19
 -1         9 0.00000E+00 0.00000E+00 2.00010E-03 0.00000E+00-4.18795E-19-2.04593E-19
 -1        10 0.00000E+00 0.00000E+00 2.00010E-03 0.00000E+00 4.40404E-19 3.85247E-19
 -1        11 0.00000E+00 0.00000E+00 2.00010E-03 0.00000E+00 2.54597E-19 2.23763E-19
 -1        12 0.00000E+00 0.00000E+00 2.00010E-03 0.00000E+00 2.42075E-19 1.71784E-19
 -1        13 0.00000E+00 0.00000E+00 2.00010E-03 0.00000E+00-1.72104E-19-2.53389E-20
 -1        14 0.00000E+00 0.00000E+00 2.00010E-03 0.00000E+00 4.10158E-19 8.94127E-20
 -1        15 0.00000E+00 0.00000E+00 2.00010E-03 0.00000E+00-1.16356E-18 2.49269E-19
 -1        16 0.00000E+00 0.00000E+00 2.00010E-03 0.00000E+00 4.45153E-19 4.17991E-19
 -1        17 0.00000E+00 0.00000E+00 2.00010E-03 0.00000E+00-4.86716E-20 2.27507E-19
 -1        18 0.00000E+00 0.00000E+00 2.00010E-03 0.00000E+00 6.09490E-19-7.85158E-19
 -1        19 0.00000E+00 0.00000E+00 2.00010E-03 0.00000E+00 5.23083E-19-1.12112E-19
 -1        20 0.00000E+00 0.00000E+00 2.00010E-03 0.00000E+00 2.30452E-19 4.46960E-19
 -3
    1PSTEP                        19           4           1          
  100CL  104 92.78186318          20                     0    4           1
 -4  FORC        4    1
 -5  F1          1    2    1    0
 -5  F2          1    2    2    0
 -5  F3          1    2    3    0
 -5  ALL         1    2    0    0    1ALL
 -1         1-1.29643E+01-1.29643E+01 2.40713E+01
 -1         2-1.29643E+01 1.29643E+01 2.40713E+01
 -1         3-1.29643E+01 1.29643E+01-2.40713E+01
 -1         4-1.29643E+01-1.29643E+01-2.40713E+01
 -1         5 1.29643E+01-1.29643E+01 2.40713E+01
 -1         6 1.29643E+01 1.29643E+01 2.40713E+01
 -1         7 1.29643E+01 1.29643E+01-2.40713E+01
 -1         8 1.29643E+01-1.29643E+01-2.40713E+01
 -1         9 5.18574E+01-6.84549E-15-9.62852E+01
 -1        10 5.18574E+01-5.18574E+01-2.22045E-15
 -1        11 5.18574E+01 1.82174E-15 9.62852E+01
 -1        12 5.18574E+01 5.18574E+01 1.32672E-14
 -1        13-8.52462E-15 5.18574E+01-9.62852E+01
 -1        14 1.06328E-14-5.18574E+01-9.62852E+01
 -1        15 5.57641E-15-5.18574E+01 9.62852E+01
 -1        16-4.40948E-15 5.18574E+01 9.62852E+01
 -1        17-5.18574E+01 1.41909E-15-9.62852E+01
 -1        18-5.18574E+01-5.18574E+01-7.10543E-15
 -1        19-5.18574E+01 3.90998E-15 9.62852E+01
 -1        20-5.18574E+01 5.18574E+01 1.11022E-15
 -3
    1PSTEP                        20           4           1          
  100CL  104 92.78186318          20                     0    4           1
 -4  ERROR       1    1
 -5  STR(%)      1    1    0    0
 -1         1 1.10723E-14
 -1         2 1.10723E-14
 -1         3 1.10723E-14
 -1         4 1.10723E-14
 -1         5 1.10723E-14
 -1         6 1.10723E-14
 -1         7 1.10723E-14
 -1         8 1.10723E-14
 -1         9 1.10723E-14
 -1        10 1.10723E-14
 -1        11 1.10723E-14
 -1        12 1.10723E-14
 -1        13 1.10723E-14
 -1        14 1.10723E-14
 -1        15 1.10723E-14
 -1        16 1.10723E-14
 -1        17 1.10723E-14
 -1        18 1.10723E-14
 -1        19 1.10723E-14
 -1        20 1.10723E-14
 -3
    1PSTEP                        21           5           1          
  100CL  105 147.2407829          20                     0    5           1
 -4  DISP        4    1
 -5  D1          1    2    1    0
 -5  D2          1    2    2    0
 -5  D3          1    2    3    0
 -5  ALL         1    2    0    0    1ALL
 -1         1 0.00000E+00 0.00000E+00 0.00000E+00
 -1         2 0.00000E+00 0.00000E+00 0.00000E+00
 -1         3 0.00000E+00 0.00000E+00 2.00000E-03
 -1         4 0.00000E+00 0.00000E+00 2.00000E-03
 -1         5 0.00000E+00 0.00000E+00 0.00000E+00
 -1         6 0.00000E+00 0.00000E+00 0.00000E+00
 -1         7 0.00000E+00 0.00000E+00 2.00000E-03
 -1         8 0.00000E+00 0.00000E+00 2.00000E-03
 -1         9 0.00000E+00 0.00000E+00 0.00000E+00
 -1        10 0.00000E+00 0.00000E+00 1.00000E-03
 -1        11 0.00000E+00 0.00000E+00 2.00000E-03
 -1        12 0.00000E+00 0.00000E+00 1.00000E-03
 -1        13 0.00000E+00 0.00000E+00 0.00000E+00
 -1        14 0.00000E+00 0.00000E+00 0.00000E+00
 -1        15 0.00000E+00 0.00000E+00 2.00000E-03
 -1        16 0.00000E+00 0.00000E+00 2.00000E-03
 -1        17 0.00000E+00 0.00000E+00 0.00000E+00
 -1        18 0.00000E+00 0.00000E+00 1.00000E-03
 -1        19 0.00000E+00 0.00000E+00 2.00000E-03
 -1        20 0.00000E+00 0.00000E+00 1.00000E-03
 -3
    1PSTEP                        22           5           1          
  100CL  105 147.2407829          20                     0    5           1
 -4  STRESS      6    1
 -5  SXX         1    4    1    1
 -5  SYY         1    4    2    2
 -5  SZZ         1    4    3    3
 -5  SXY         1    4    1    2
 -5  SYZ         1    4    2    3
 -5  SZX         1    4    3    1
 -1         1 1.55576E+02 1.55576E+02 2.88825E+02 0.00000E+00 2.74868E-14 4.79094E-14
 -1         2 1.55576E+02 1.55576E+02 2.88825E+02 0.00000E+00-4.32303E-14-5.38807E-14
 -1         3 1.55576E+02 1.55576E+02 2.88825E+02 0.00000E+00-6.72360E-15-7.98529E-14
 -1         4 1.55576E+02 1.55576E+02 2.88825E+02 0.00000E+00-1.53817E-14 1.17353E-13
 -1         5 1.55576E+02 1.55576E+02 2.88825E+02 0.00000E+00 1.97322E-14-1.68716E-14
 -1         6 1.55576E+02 1.55576E+02 2.88825E+02 0.00000E+00-1.42486E-14 5.77531E-16
 -1         7 1.55576E+02 1.55576E+02 2.88825E+02 0.00000E+00 1.28743E-13 9.41500E-14
 -1         8 1.55576E+02 1.55576E+02 2.88825E+02 0.00000E+00-1.95547E-16-2.50856E-14
 -1         9 1.55590E+02 1.55590E+02 2.88851E+02 0.00000E+00-2.79032E-14-1.36315E-14
 -1        10 1.55590E+02 1.55590E+02 2.88851E+02 0.00000E+00 2.93429E-14 2.56679E-14
 -1        11 1.55590E+02 1.55590E+02 2.88851E+02 0.00000E+00 1.69631E-14 1.49087E-14
 -1        12 1.55590E+02 1.55590E+02 2.88851E+02 0.00000E+00 1.61288E-14 1.14455E-14
 -1        13 1.55590E+02 1.55590E+02 2.88851E+02 0.00000E+00-1.14668E-14-1.68826E-15
 -1        14 1.55590E+02 1.55590E+02 2.88851E+02 0.00000E+00 2.73277E-14 5.95732E-15
 -1        15 1.55590E+02 1.55590E+02 2.88851E+02 0.00000E+00-7.75251E-14 1.66081E-14
 -1        16 1.55590E+02 1.55590E+02 2.88851E+02 0.00000E+00 2.96593E-14 2.78496E-14
 -1        17 1.55590E+02 1.55590E+02 2.88851E+02 0.00000E+00-3.24285E-15 1.51582E-14
 -1        18 1.55590E+02 1.55590E+02 2.88851E+02 0.00000E+00 4.06086E-14-5.23129E-14
 -1        19 1.55590E+02 1.55590E+02 2.88851E+02 0.00000E+00 3.48516E-14-7.46969E-15
 -1        20 1.55590E+02 1.55590E+02 2.88851E+02 0.00000E+00 1.53543E-14 2.97797E-14
 -3
    1PSTEP                        23           5           1          
  100CL  105 147.2407829          20                     0    5           1
 -4  TOSTRAIN    6    1
 -5  EXX         1    4    1    1
 -5  EYY         1    4    2    2
 -5  EZZ         1    4    3    3
 -5  EXY         1    4    1    2
 -5  EYZ         1    4    2    3
 -5  EZX         1    4    3    1
 -1         1 0.00000E+00 0.00000E+00 1.99992E-03 0.00000E+00 4.12546E-19 7.19066E-19
 -1         2 0.00000E+00 0.00000E+00 1.99992E-03 0.00000E+00-6.48839E-19-8.08690E-19
 -1         3 0.00000E+00 0.00000E+00 1.99992E-03 0.00000E+00-1.00914E-19-1.19850E-18
 -1         4 0.00000E+00 0.00000E+00 1.99992E-03 0.00000E+00-2.30863E-19 1.76134E-18
 -1         5 0.00000E+00 0.00000E+00 1.99992E-03 0.00000E+00 2.96159E-19-2.53224E-19
 -1         6 0.00000E+00 0.00000E+00 1.99992E-03 0.00000E+00-2.13856E-19 8.66809E-21
 -1         7 0.00000E+00 0.00000E+00 1.99992E-03 0.00000E+00 1.93228E-18 1.41309E-18
 -1         8 0.00000E+00 0.00000E+00 1.99992E-03 0.00000E+00-2.93494E-21-3.76507E-19
 -1         9 0.00000E+00 0.00000E+00 2.00010E-03 0.00000E+00-4.18795E-19-2.04593E-19
 -1        10 0.00000E+00 0.00000E+00 2.00010E-03 0.00000E+00 4.40404E-19 3.85247E-19
 -1        11 0.00000E+00 0.00000E+00 2.00010E-03 0.00000E+00 2.54597E-19 2.23763E-19
 -1        12 0.00000E+00 0.00000E+00 2.00010E-03 0.00000E+00 2.42075E-19 1.71784E-19
 -1        13 0.00000E+00 0.00000E+00 2.00010E-03 0.00000E+00-1.72104E-19-2.53389E-20
 -1        14 0.00000E+00 0.00000E+00 2.00010E-03 0.00000E+00 4.10158E-19 8.94127E-20
 -1        15 0.00000E+00 0.00000E+00 2.00010E-03 0.00000E+00-1.16356E-18 2.49269E-19
 -1        16 0.00000E+00 0.00000E+00 2.00010E-03 0.00000E+00 4.45153E-19 4.17991E-19
 -1        17 0.00000E+00 0.00000E+00 2.00010E-03 0.00000E+00-4.86716E-20 2.27507E-19
 -1        18 0.00000E+00 0.00000E+00 2.00010E-03 0.00000E+00 6.09490E-19-7.85158E-19
 -1        19 0.00000E+00 0.00000E+00 2.00010E-03 0.00000E+00 5.23083E-19-1.12112E-19
 -1        20 0.00000E+00 0.00000E+00 2.00010E-03 0.00000E+00 2.30452E-19 4.46960E-19
 -3
    1PSTEP                        24           5           1          
  100CL  105 147.2407829          20                     0    5           1
 -4  FORC        4    1
 -5  F1          1    2    1    0
 -5  F2          1    2    2    0
 -5  F3          1    2    3    0
 -5  ALL         1    2    0    0    1ALL
 -1         1-1.29652E+01-1.29652E+01 2.40697E+01
 -1         2-1.29652E+01 1.29652E+01 2.40697E+01
 -1         3-1.29652E+01 1.29652E+01-2.40697E+01
 -1         4-1.29652E+01-1.29652E+01-2.40697E+01
 -1         5 1.29652E+01-1.29652E+01 2.40697E+01
 -1         6 1.29652E+01 1.29652E+01 2.40697E+01
 -1         7 1.29652E+01 1.29652E+01-2.40697E+01
 -1         8 1.29652E+01-1.29652E+01-2.40697E+01
 -1         9 5.18606E+01-6.92875E-15-9.62788E+01
 -1        10 5.18606E+01-5.18606E+01 4.66294E-15
 -1        11 5.18606E+01 5.37444E-15 9.62788E+01
 -1        12 5.18606E+01 5.18606E+01 2.22045E-14
 -1        13-5.05517E-15 5.18606E+01-9.62788E+01
 -1        14 1.15211E-14-5.18606E+01-9.62788E+01
 -1        15 2.02364E-15-5.18606E+01 9.62788E+01
 -1        16-6.18584E-15 5.18606E+01 9.62788E+01
 -1        17-5.18606E+01-1.35144E-16-9.62788E+01
 -1        18-5.18606E+01-5.18606E+01 8.88178E-15
 -1        19-5.18606E+01 3.57189E-16 9.62788E+01
 -1        20-5.18606E+01 5.18606E+01 7.99361E-15
 -3
    1PSTEP                        25           5           1          
  100CL  105 147.2407829          20                     0    5           1
 -4  ERROR       1    1
 -5  STR(%)      1    1    0    0
 -1         1 6.03984E-15
 -1         2 6.03984E-15
 -1         3 6.03984E-15
 -1         4 6.03984E-15
 -1         5 6.03984E-15
 -1         6 6.03984E-15
 -1         7 6.03984E-15
 -1         8 6.03984E-15
 -1         9 6.03984E-15
 -1        10 6.03984E-15
 -1        11 6.03984E-15
 -1        12 6.03984E-15
 -1        13 6.03984E-15
 -1        14 6.03984E-15
 -1        15 6.03984E-15
 -1        16 6.03984E-15
 -1        17 6.03984E-15
 -1        18 6.03984E-15
 -1        19 6.03984E-15
 -1        20 6.03984E-15
 -3
    1PSTEP                        26           6           1          
  100CL  106 228.9291624          20                     0    6           1
 -4  DISP        4    1
 -5  D1          1    2    1    0
 -5  D2          1    2    2    0
 -5  D3          1    2    3    0
 -5  ALL         1    2    0    0    1ALL
 -1         1 0.00000E+00 0.00000E+00 0.00000E+00
 -1         2 0.00000E+00 0.00000E+00 0.00000E+00
 -1         3 0.00000E+00 0.00000E+00 2.00000E-03
 -1         4 0.00000E+00 0.00000E+00 2.00000E-03
 -1         5 0.00000E+00 0.00000E+00 0.00000E+00
 -1         6 0.00000E+00 0.00000E+00 0.00000E+00
 -1         7 0.00000E+00 0.00000E+00 2.00000E-03
 -1         8 0.00000E+00 0.00000E+00 2.00000E-03
 -1         9 0.00000E+00 0.00000E+00 0.00000E+00
 -1        10 0.00000E+00 0.00000E+00 1.00000E-03
 -1        11 0.00000E+00 0.00000E+00 2.00000E-03
 -1        12 0.00000E+00 0.00000E+00 1.00000E-03
 -1        13 0.00000E+00 0.00000E+00 0.00000E+00
 -1        14 0.00000E+00 0.00000E+00 0.00000E+00
 -1        15 0.00000E+00 0.00000E+00 2.00000E-03
 -1        16 0.00000E+00 0.00000E+00 2.00000E-03
 -1        17 0.00000E+00 0.00000E+00 0.00000E+00
 -1        18 0.00000E+00 0.00000E+00 1.00000E-03
 -1        19 0.00000E+00 0.00000E+00 2.00000E-03
 -1        20 0.00000E+00 0.00000E+00 1.00000E-03
 -3
    1PSTEP                        27           6           1          
  100CL  106 228.9291624          20                     0    6           1
 -4  STRESS      6    1
 -5  SXX         1    4    1    1
 -5  SYY         1    4    2    2
 -5  SZZ         1    4    3    3
 -5  SXY         1    4    1    2
 -5  SYZ         1    4    2    3
 -5  SZX         1    4    3    1
 -1         1 1.55590E+02 1.55590E+02 2.88796E+02 0.00000E+00 2.74778E-14 4.78936E-14
 -1         2 1.55590E+02 1.55590E+02 2.88796E+02 0.00000E+00-4.32161E-14-5.38631E-14
 -1         3 1.55590E+02 1.55590E+02 2.88796E+02 0.00000E+00-6.72139E-15-7.98266E-14
 -1         4 1.55590E+02 1.55590E+02 2.88796E+02 0.00000E+00-1.53767E-14 1.17314E-13
 -1         5 1.55590E+02 1.55590E+02 2.88796E+02 0.00000E+00 1.97257E-14-1.68661E-14
 -1         6 1.55590E+02 1.55590E+02 2.88796E+02 0.00000E+00-1.42440E-14 5.77341E-16
 -1         7 1.55590E+02 1.55590E+02 2.88796E+02 0.00000E+00 1.28700E-13 9.41191E-14
 -1         8 1.55590E+02 1.55590E+02 2.88796E+02 0.00000E+00-1.95482E-16-2.50774E-14
 -1         9 1.55604E+02 1.55604E+02 2.88822E+02 0.00000E+00-2.78940E-14-1.36270E-14
 -1        10 1.55604E+02 1.55604E+02 2.88822E+02 0.00000E+00 2.93333E-14 2.56595E-14
 -1        11 1.55604E+02 1.55604E+02 2.88822E+02 0.00000E+00 1.69575E-14 1.49038E-14
 -1        12 1.55604E+02 1.55604E+02 2.88822E+02 0.00000E+00 1.61235E-14 1.14418E-14
 -1        13 1.55604E+02 1.55604E+02 2.88822E+02 0.00000E+00-1.14631E-14-1.68771E-15
 -1        14 1.55604E+02 1.55604E+02 2.88822E+02 0.00000E+00 2.73188E-14 5.95537E-15
 -1        15 1.55604E+02 1.55604E+02 2.88822E+02 0.00000E+00-7.74997E-14 1.66026E-14
 -1        16 1.55604E+02 1.55604E+02 2.88822E+02 0.00000E+00 2.96496E-14 2.78404E-14
 -1        17 1.55604E+02 1.55604E+02 2.88822E+02 0.00000E+00-3.24179E-15 1.51532E-14
 -1        18 1.55604E+02 1.55604E+02 2.88822E+02 0.00000E+00 4.05953E-14-5.22957E-14
 -1        19 1.55604E+02 1.55604E+02 2.88822E+02 0.00000E+00 3.48401E-14-7.46724E-15
 -1        20 1.55604E+02 1.55604E+02 2.88822E+02 0.00000E+00 1.53493E-14 2.97699E-14
 -3
    1PSTEP                        28           6           1          
  100CL  106 228.9291624          20                     0    6           1
 -4  TOSTRAIN    6    1
 -5  EXX         1    4    1    1
 -5  EYY         1    4    2    2
 -5  EZZ         1    4    3    3
 -5  EXY         1    4    1    2
 -5  EYZ         1    4    2    3
 -5  EZX         1    4    3    1
 -1         1 0.00000E+00 0.00000E+00 1.99992E-03 0.00000E+00 4.12546E-19 7.19066E-19
 -1         2 0.00000E+00 0.00000E+00 1.99992E-03 0.00000E+00-6.48839E-19-8.08690E-19
 -1         3 0.00000E+00 0.00000E+00 1.99992E-03 0.00000E+00-1.00914E-19-1.19850E-18
 -1         4 0.00000E+00 0.00000E+00 1.99992E-03 0.00000E+00-2.30863E-19 1.76134E-18
 -1         5 0.00000E+00 0.00000E+00 1.99992E-03 0.00000E+00 2.96159E-19-2.53224E-19
 -1         6 0.00000E+00 0.00000E+00 1.99992E-03 0.00000E+00-2.13856E-19 8.66809E-21
 -1         7 0.00000E+00 0.00000E+00 1.99992E-03 0.00000E+00 1.93228E-18 1.41309E-18
 -1         8 0.00000E+00 0.00000E+00 1.99992E-03 0.00000E+00-2.93494E-21-3.76507E-19
 -1         9 0.00000E+00 0.00000E+00 2.00010E-03 0.00000E+00-4.18795E-19-2.04593E-19
 -1        10 0.00000E+00 0.00000E+00 2.00010E-03 0.00000E+00 4.40404E-19 3.85247E-19
 -1        11 0.00000E+00 0.00000E+00 2.00010E-03 0.00000E+00 2.54597E-19 2.23763E-19
 -1        12 0.00000E+00 0.00000E+00 2.00010E-03 0.00000E+00 2.42075E-19 1.71784E-19
 -1        13 0.00000E+00 0.00000E+00 2.00010E-03 0.00000E+00-1.72104E-19-2.53389E-20
 -1        14 0.00000E+00 0.00000E+00 2.00010E-03 0.00000E+00 4.10158E-19 8.94127E-20
 -1        15 0.00000E+00 0.00000E+00 2.00010E-03 0.00000E+00-1.16356E-18 2.49269E-19
 -1        16 0.00000E+00 0.00000E+00 2.00010E-03 0.00000E+00 4.45153E-19 4.17991E-19
 -1        17 0.00000E+00 0.00000E+00 2.00010E-03 0.00000E+00-4.86716E-20 2.27507E-19
 -1        18 0.00000E+00 0.00000E+00 2.00010E-03 0.00000E+00 6.09490E-19-7.85158E-19
 -1        19 0.00000E+00 0.00000E+00 2.00010E-03 0.00000E+00 5.23083E-19-1.12112E-19
 -1        20 0.00000E+00 0.00000E+00 2.00010E-03 0.00000E+00 2.30452E-19 4.46960E-19
 -3
    1PSTEP                        29           6           1          
  100CL  106 228.9291624          20                     0    6           1
 -4  FORC        4    1
 -5  F1          1    2    1    0
 -5  F2          1    2    2    0
 -5  F3          1    2    3    0
 -5  ALL         1    2    0    0    1ALL
 -1         1-1.29664E+01-1.29664E+01 2.40673E+01
 -1         2-1.29664E+01 1.29664E+01 2.40673E+01
 -1         3-1.29664E+01 1.29664E+01-2.40673E+01
 -1         4-1.29664E+01-1.29664E+01-2.40673E+01
 -1         5 1.29664E+01-1.29664E+01 2.40673E+01
 -1         6 1.29664E+01 1.29664E+01 2.40673E+01
 -1         7 1.29664E+01 1.29664E+01-2.40673E+01
 -1         8 1.29664E+01-1.29664E+01-2.40673E+01
 -1         9 5.18655E+01-7.81692E-15-9.62691E+01
 -1        10 5.18655E+01-5.18655E+01 7.32747E-15
 -1        11 5.18655E+01 2.70989E-15 9.62691E+01
 -1        12 5.18655E+01 5.18655E+01 1.76525E-14
 -1        13 2.07802E-15 5.18655E+01-9.62691E+01
 -1        14 1.37416E-14-5.18655E+01-9.62691E+01
 -1        15 3.79992E-15-5.18655E+01 9.62691E+01
 -1        16-8.85039E-15 5.18655E+01 9.62691E+01
 -1        17-5.18655E+01 5.31107E-16-9.62691E+01
 -1        18-5.18655E+01-5.18655E+01 1.77636E-15
 -1        19-5.18655E+01 3.90979E-15 9.62691E+01
 -1        20-5.18655E+01 5.18655E+01 3.33067E-15
 -3
    1PSTEP                        30           6           1          
  100CL  106 228.9291624          20                     0    6           1
 -4  ERROR       1    1
 -5  STR(%)      1    1    0    0
 -1         1 1.30876E-14
 -1         2 1.30876E-14
 -1         3 1.30876E-14
 -1         4 1.30876E-14
 -1         5 1.30876E-14
 -1         6 1.30876E-14
 -1         7 1.30876E-14
 -1         8 1.30876E-14
 -1         9 1.30876E-14
 -1        10 1.30876E-14
 -1        11 1.30876E-14
 -1        12 1.30876E-14
 -1        13 1.30876E-14
 -1        14 1.30876E-14
 -1        15 1.30876E-14
 -1        16 1.30876E-14
 -1        17 1.30876E-14
 -1        18 1.30876E-14
 -1        19 1.30876E-14
 -1        20 1.30876E-14
 -3
    1PSTEP                        31           7           1          
  100CL  107 351.4617317          20                     0    7           1
 -4  DISP        4    1
 -5  D1          1    2    1    0
 -5  D2          1    2    2    0
 -5  D3          1    2    3    0
 -5  ALL         1    2    0    0    1ALL
 -1         1 0.00000E+00 0.00000E+00 0.00000E+00
 -1         2 0.00000E+00 0.00000E+00 0.00000E+00
 -1         3 0.00000E+00 0.00000E+00 2.00000E-03
 -1         4 0.00000E+00 0.00000E+00 2.00000E-03
 -1         5 0.00000E+00 0.00000E+00 0.00000E+00
 -1         6 0.00000E+00 0.00000E+00 0.00000E+00
 -1         7 0.00000E+00 0.00000E+00 2.00000E-03
 -1         8 0.00000E+00 0.00000E+00 2.00000E-03
 -1         9 0.00000E+00 0.00000E+00 0.00000E+00
 -1        10 0.00000E+00 0.00000E+00 1.00000E-03
 -1        11 0.00000E+00 0.00000E+00 2.00000E-03
 -1        12 0.00000E+00 0.00000E+00 1.00000E-03
 -1        13 0.00000E+00 0.00000E+00 0.00000E+00
 -1        14 0.00000E+00 0.00000E+00 0.00000E+00
 -1        15 0.00000E+00 0.00000E+00 2.00000E-03
 -1        16 0.00000E+00 0.00000E+00 2.00000E-03
 -1        17 0.00000E+00 0.00000E+00 0.00000E+00
 -1        18 0.00000E+00 0.00000E+00 1.00000E-03
 -1        19 0.00000E+00 0.00000E+00 2.00000E-03
 -1        20 0.00000E+00 0.00000E+00 1.00000E-03
 -3
    1PSTEP                        32           7           1          
  100CL  107 351.4617317          20                     0    7           1
 -4  STRESS      6    1
 -5  SXX         1    4    1    1
 -5  SYY         1    4    2    2
 -5  SZZ         1    4    3    3
 -5  SXY         1    4    1    2
 -5  SYZ         1    4    2    3
 -5  SZX         1    4    3    1
 -1         1 1.55612E+02 1.55612E+02 2.88752E+02 0.00000E+00 2.74642E-14 4.78701E-14
 -1         2 1.55612E+02 1.55612E+02 2.88752E+02 0.00000E+00-4.31949E-14-5.38365E-14
 -1         3 1.55612E+02 1.55612E+02 2.88752E+02 0.00000E+00-6.71808E-15-7.97873E-14
 -1         4 1.55612E+02 1.55612E+02 2.88752E+02 0.00000E+00-1.53691E-14 1.17257E-13
 -1         5 1.55612E+02 1.55612E+02 2.88752E+02 0.00000E+00 1.97160E-14-1.68578E-14
 -1         6 1.55612E+02 1.55612E+02 2.88752E+02 0.00000E+00-1.42370E-14 5.77057E-16
 -1         7 1.55612E+02 1.55612E+02 2.88752E+02 0.00000E+00 1.28637E-13 9.40727E-14
 -1         8 1.55612E+02 1.55612E+02 2.88752E+02 0.00000E+00-1.95386E-16-2.50650E-14
 -1         9 1.55626E+02 1.55626E+02 2.88778E+02 0.00000E+00-2.78803E-14-1.36203E-14
 -1        10 1.55626E+02 1.55626E+02 2.88778E+02 0.00000E+00 2.93188E-14 2.56469E-14
 -1        11 1.55626E+02 1.55626E+02 2.88778E+02 0.00000E+00 1.69491E-14 1.48965E-14
 -1        12 1.55626E+02 1.55626E+02 2.88778E+02 0.00000E+00 1.61155E-14 1.14361E-14
 -1        13 1.55626E+02 1.55626E+02 2.88778E+02 0.00000E+00-1.14574E-14-1.68688E-15
 -1        14 1.55626E+02 1.55626E+02 2.88778E+02 0.00000E+00 2.73053E-14 5.95243E-15
 -1        15 1.55626E+02 1.55626E+02 2.88778E+02 0.00000E+00-7.74615E-14 1.65945E-14
 -1        16 1.55626E+02 1.55626E+02 2.88778E+02 0.00000E+00 2.96350E-14 2.78267E-14
 -1        17 1.55626E+02 1.55626E+02 2.88778E+02 0.00000E+00-3.24019E-15 1.51457E-14
 -1        18 1.55626E+02 1.55626E+02 2.88778E+02 0.00000E+00 4.05753E-14-5.22700E-14
 -1        19 1.55626E+02 1.55626E+02 2.88778E+02 0.00000E+00 3.48230E-14-7.46356E-15
 -1        20 1.55626E+02 1.55626E+02 2.88778E+02 0.00000E+00 1.53418E-14 2.97553E-14
 -3
    1PSTEP                        33           7           1          
  100CL  107 351.4617317          20                     0    7           1
 -4  TOSTRAIN    6    1
 -5  EXX         1    4    1    1
 -5  EYY         1    4    2    2
 -5  EZZ         1    4    3    3
 -5  EXY         1    4    1    2
 -5  EYZ         1    4    2    3
 -5  EZX         1    4    3    1
 -1         1 0.00000E+00 0.00000E+00 1.99992E-03 0.00000E+00 4.12546E-19 7.19066E-19
 -1         2 0.00000E+00 0.00000E+00 1.99992E-03 0.00000E+00-6.48839E-19-8.08690E-19
 -1         3 0.00000E+00 0.00000E+00 1.99992E-03 0.00000E+00-1.00914E-19-1.19850E-18
 -1         4 0.00000E+00 0.00000E+00 1.99992E-03 0.00000E+00-2.30863E-19 1.76134E-18
 -1         5 0.00000E+00 0.00000E+00 1.99992E-03 0.00000E+00 2.96159E-19-2.53224E-19
 -1         6 0.00000E+00 0.00000E+00 1.99992E-03 0.00000E+00-2.13856E-19 8.66809E-21
 -1         7 0.00000E+00 0.00000E+00 1.99992E-03 0.00000E+00 1.93228E-18 1.41309E-18
 -1         8 0.00000E+00 0.00000E+00 1.99992E-03 0.00000E+00-2.93494E-21-3.76507E-19
 -1         9 0.00000E+00 0.00000E+00 2.00010E-03 0.00000E+00-4.18795E-19-2.04593E-19
 -1        10 0.00000E+00 0.00000E+00 2.00010E-03 0.00000E+00 4.40404E-19 3.85247E-19
 -1        11 0.00000E+00 0.00000E+00 2.00010E-03 0.00000E+00 2.54597E-19 2.23763E-19
 -1        12 0.00000E+00 0.00000E+00 2.00010E-03 0.00000E+00 2.42075E-19 1.71784E-19
 -1        13 0.00000E+00 0.00000E+00 2.00010E-03 0.00000E+00-1.72104E-19-2.53389E-20
 -1        14 0.00000E+00 0.00000E+00 2.00010E-03 0.00000E+00 4.10158E-19 8.94127E-20
 -1        15 0.00000E+00 0.00000E+00 2.00010E-03 0.00000E+00-1.16356E-18 2.49269E-19
 -1        16 0.00000E+00 0.00000E+00 2.00010E-03 0.00000E+00 4.45153E-19 4.17991E-19
 -1        17 0.00000E+00 0.00000E+00 2.00010E-03 0.00000E+00-4.86716E-20 2.27507E-19
 -1        18 0.00000E+00 0.00000E+00 2.00010E-03 0.00000E+00 6.09490E-19-7.85158E-19
 -1        19 0.00000E+00 0.00000E+00 2.00010E-03 0.00000E+00 5.23083E-19-1.12112E-19
 -1        20 0.00000E+00 0.00000E+00 2.00010E-03 0.00000E+00 2.30452E-19 4.46960E-19
 -3
    1PSTEP                        34           7           1          
  100CL  107 351.4617317          20                     0    7           1
 -4  FORC        4    1
 -5  F1          1    2    1    0
 -5  F2          1    2    2    0
 -5  F3          1    2    3    0
 -5  ALL         1    2    0    0    1ALL
 -1         1-1.29682E+01-1.29682E+01 2.40636E+01
 -1         2-1.29682E+01 1.29682E+01 2.40636E+01
 -1         3-1.29682E+01 1.29682E+01-2.40636E+01
 -1         4-1.29682E+01-1.29682E+01-2.40636E+01
 -1         5 1.29682E+01-1.29682E+01 2.40636E+01
 -1         6 1.29682E+01 1.29682E+01 2.40636E+01
 -1         7 1.29682E+01 1.29682E+01-2.40636E+01
 -1         8 1.29682E+01-1.29682E+01-2.40636E+01
 -1         9 5.18728E+01-6.81769E-15-9.62545E+01
 -1        10 5.18728E+01-5.18728E+01 2.66454E-15
 -1        11 5.18728E+01 4.70827E-15 9.62545E+01
 -1        12 5.18728E+01 5.18728E+01 2.00395E-14
 -1        13-2.33510E-15 5.18728E+01-9.62545E+01
 -1        14 1.35197E-14-5.18728E+01-9.62545E+01
 -1        15 2.47082E-16-5.18728E+01 9.62545E+01
 -1        16-2.41111E-15 5.18728E+01 9.62545E+01
 -1        17-5.18728E+01-3.56896E-16-9.62545E+01
 -1        18-5.18728E+01-5.18728E+01 3.55271E-15
 -1        19-5.18728E+01 3.56896E-16 9.62545E+01
 -1        20-5.18728E+01 5.18728E+01 6.21725E-15
 -3
    1PSTEP                        35           7           1          
  100CL  107 351.4617317          20                     0    7           1
 -4  ERROR       1    1
 -5  STR(%)      1    1    0    0
 -1         1 9.06204E-15
 -1         2 9.06204E-15
 -1         3 9.06204E-15
 -1         4 9.06204E-15
 -1         5 9.06204E-15
 -1         6 9.06204E-15
 -1         7 9.06204E-15
 -1         8 9.06204E-15
 -1         9 9.06204E-15
 -1        10 9.06204E-15
 -1        11 9.06204E-15
 -1        12 9.06204E-15
 -1        13 9.06204E-15
 -1        14 9.06204E-15
 -1        15 9.06204E-15
 -1        16 9.06204E-15
 -1        17 9.06204E-15
 -1        18 9.06204E-15
 -1        19 9.06204E-15
 -1        20 9.06204E-15
 -3
    1PSTEP                        36           8           1          
  100CL  108 535.2605857          20                     0    8           1
 -4  DISP        4    1
 -5  D1          1    2    1    0
 -5  D2          1    2    2    0
 -5  D3          1    2    3    0
 -5  ALL         1    2    0    0    1ALL
 -1         1 0.00000E+00 0.00000E+00 0.00000E+00
 -1         2 0.00000E+00 0.00000E+00 0.00000E+00
 -1         3 0.00000E+00 0.00000E+00 2.00000E-03
 -1         4 0.00000E+00 0.00000E+00 2.00000E-03
 -1         5 0.00000E+00 0.00000E+00 0.00000E+00
 -1         6 0.00000E+00 0.00000E+00 0.00000E+00
 -1         7 0.00000E+00 0.00000E+00 2.00000E-03
 -1         8 0.00000E+00 0.00000E+00 2.00000E-03
 -1         9 0.00000E+00 0.00000E+00 0.00000E+00
 -1        10 0.00000E+00 0.00000E+00 1.00000E-03
 -1        11 0.00000E+00 0.00000E+00 2.00000E-03
 -1        12 0.00000E+00 0.00000E+00 1.00000E-03
 -1        13 0.00000E+00 0.00000E+00 0.00000E+00
 -1        14 0.00000E+00 0.00000E+00 0.00000E+00
 -1        15 0.00000E+00 0.00000E+00 2.00000E-03
 -1        16 0.00000E+00 0.00000E+00 2.00000E-03
 -1        17 0.00000E+00 0.00000E+00 0.00000E+00
 -1        18 0.00000E+00 0.00000E+00 1.00000E-03
 -1        19 0.00000E+00 0.00000E+00 2.00000E-03
 -1        20 0.00000E+00 0.00000E+00 1.00000E-03
 -3
    1PSTEP                        37           8           1          
  100CL  108 535.2605857          20                     0    8           1
 -4  STRESS      6    1
 -5  SXX         1    4    1    1
 -5  SYY         1    4    2    2
 -5  SZZ         1    4    3    3
 -5  SXY         1    4    1    2
 -5  SYZ         1    4    2    3
 -5  SZX         1    4    3    1
 -1         1 1.55645E+02 1.55645E+02 2.88686E+02 0.00000E+00 2.74440E-14 4.78347E-14
 -1         2 1.55645E+02 1.55645E+02 2.88686E+02 0.00000E+00-4.31630E-14-5.37968E-14
 -1         3 1.55645E+02 1.55645E+02 2.88686E+02 0.00000E+00-6.71312E-15-7.97284E-14
 -1         4 1.55645E+02 1.55645E+02 2.88686E+02 0.00000E+00-1.53578E-14 1.17170E-13
 -1         5 1.55645E+02 1.55645E+02 2.88686E+02 0.00000E+00 1.97015E-14-1.68453E-14
 -1         6 1.55645E+02 1.55645E+02 2.88686E+02 0.00000E+00-1.42264E-14 5.76631E-16
 -1         7 1.55645E+02 1.55645E+02 2.88686E+02 0.00000E+00 1.28542E-13 9.40033E-14
 -1         8 1.55645E+02 1.55645E+02 2.88686E+02 0.00000E+00-1.95242E-16-2.50465E-14
 -1         9 1.55659E+02 1.55659E+02 2.88712E+02 0.00000E+00-2.78597E-14-1.36102E-14
 -1        10 1.55659E+02 1.55659E+02 2.88712E+02 0.00000E+00 2.92972E-14 2.56279E-14
 -1        11 1.55659E+02 1.55659E+02 2.88712E+02 0.00000E+00 1.69366E-14 1.48855E-14
 -1        12 1.55659E+02 1.55659E+02 2.88712E+02 0.00000E+00 1.61036E-14 1.14277E-14
 -1        13 1.55659E+02 1.55659E+02 2.88712E+02 0.00000E+00-1.14490E-14-1.68563E-15
 -1        14 1.55659E+02 1.55659E+02 2.88712E+02 0.00000E+00 2.72851E-14 5.94804E-15
 -1        15 1.55659E+02 1.55659E+02 2.88712E+02 0.00000E+00-7.74043E-14 1.65822E-14
 -1        16 1.55659E+02 1.55659E+02 2.88712E+02 0.00000E+00 2.96131E-14 2.78062E-14
 -1        17 1.55659E+02 1.55659E+02 2.88712E+02 0.00000E+00-3.23780E-15 1.51345E-14
 -1        18 1.55659E+02 1.55659E+02 2.88712E+02 0.00000E+00 4.05454E-14-5.22314E-14
 -1        19 1.55659E+02 1.55659E+02 2.88712E+02 0.00000E+00 3.47973E-14-7.45805E-15
 -1        20 1.55659E+02 1.55659E+02 2.88712E+02 0.00000E+00 1.53304E-14 2.97333E-14
 -3
    1PSTEP                        38           8           1          
  100CL  108 535.2605857          20                     0    8           1
 -4  TOSTRAIN    6    1
 -5  EXX         1    4    1    1
 -5  EYY         1    4    2    2
 -5  EZZ         1    4    3    3
 -5  EXY         1    4    1    2
 -5  EYZ         1    4    2    3
 -5  EZX         1    4    3    1
 -1         1 0.00000E+00 0.00000E+00 1.99992E-03 0.00000E+00 4.12546E-19 7.19066E-19
 -1         2 0.00000E+00 0.00000E+00 1.99992E-03 0.00000E+00-6.48839E-19-8.08690E-19
 -1         3 0.00000E+00 0.00000E+00 1.99992E-03 0.00000E+00-1.00914E-19-1.19850E-18
 -1         4 0.00000E+00 0.00000E+00 1.99992E-03 0.00000E+00-2.30863E-19 1.76134E-18
 -1         5 0.00000E+00 0.00000E+00 1.99992E-03 0.00000E+00 2.96159E-19-2.53224E-19
 -1         6 0.00000E+00 0.00000E+00 1.99992E-03 0.00000E+00-2.13856E-19 8.66809E-21
 -1         7 0.00000E+00 0.00000E+00 1.99992E-03 0.00000E+00 1.93228E-18 1.41309E-18
 -1         8 0.00000E+00 0.00000E+00 1.99992E-03 0.00000E+00-2.93494E-21-3.76507E-19
 -1         9 0.00000E+00 0.00000E+00 2.00010E-03 0.00000E+00-4.18795E-19-2.04593E-19
 -1        10 0.00000E+00 0.00000E+00 2.00010E-03 0.00000E+00 4.40404E-19 3.85247E-19
 -1        11 0.00000E+00 0.00000E+00 2.00010E-03 0.00000E+00 2.54597E-19 2.23763E-19
 -1        12 0.00000E+00 0.00000E+00 2.00010E-03 0.00000E+00 2.42075E-19 1.71784E-19
 -1        13 0.00000E+00 0.00000E+00 2.00010E-03 0.00000E+00-1.72104E-19-2.53389E-20
 -1        14 0.00000E+00 0.00000E+00 2.00010E-03 0.00000E+00 4.10158E-19 8.94127E-20
 -1        15 0.00000E+00 0.00000E+00 2.00010E-03 0.00000E+00-1.16356E-18 2.49269E-19
 -1        16 0.00000E+00 0.00000E+00 2.00010E-03 0.00000E+00 4.45153E-19 4.17991E-19
 -1        17 0.00000E+00 0.00000E+00 2.00010E-03 0.00000E+00-4.86716E-20 2.27507E-19
 -1        18 0.00000E+00 0.00000E+00 2.00010E-03 0.00000E+00 6.09490E-19-7.85158E-19
 -1        19 0.00000E+00 0.00000E+00 2.00010E-03 0.00000E+00 5.23083E-19-1.12112E-19
 -1        20 0.00000E+00 0.00000E+00 2.00010E-03 0.00000E+00 2.30452E-19 4.46960E-19
 -3
    1PSTEP                        39           8           1          
  100CL  108 535.2605857          20                     0    8           1
 -4  FORC        4    1
 -5  F1          1    2    1    0
 -5  F2          1    2    2    0
 -5  F3          1    2    3    0
 -5  ALL         1    2    0    0    1ALL
 -1         1-1.29709E+01-1.29709E+01 2.40582E+01
 -1         2-1.29709E+01 1.29709E+01 2.40582E+01
 -1         3-1.29709E+01 1.29709E+01-2.40582E+01
 -1         4-1.29709E+01-1.29709E+01-2.40582E+01
 -1         5 1.29709E+01-1.29709E+01 2.40582E+01
 -1         6 1.29709E+01 1.29709E+01 2.40582E+01
 -1         7 1.29709E+01 1.29709E+01-2.40582E+01
 -1         8 1.29709E+01-1.29709E+01-2.40582E+01
 -1         9 5.18837E+01-7.48379E-15-9.62326E+01
 -1        10 5.18837E+01-5.18837E+01 8.88178E-16
 -1        11 5.18837E+01 4.70823E-15 9.62326E+01
 -1        12 5.18837E+01 5.18837E+01 2.30926E-14
 -1        13-5.38819E-15 5.18837E+01-9.62326E+01
 -1        14 1.52946E-15-5.18837E+01-9.62326E+01
 -1        15 2.46899E-16-5.18837E+01 9.62326E+01
 -1        16-5.07567E-15 5.18837E+01 9.62326E+01
 -1        17-5.18837E+01 5.31546E-16-9.62326E+01
 -1        18-5.18837E+01-5.18837E+01-3.55271E-15
 -1        19-5.18837E+01 3.90935E-15 9.62326E+01
 -1        20-5.18837E+01 5.18837E+01-2.22045E-15
 -3
    1PSTEP                        40           8           1          
  100CL  108 535.2605857          20                     0    8           1
 -4  ERROR       1    1
 -5  STR(%)      1    1    0    0
 -1         1 1.00712E-14
 -1         2 1.00712E-14
 -1         3 1.00712E-14
 -1         4 1.00712E-14
 -1         5 1.00712E-14
 -1         6 1.00712E-14
 -1         7 1.00712E-14
 -1         8 1.00712E-14
 -1         9 1.00712E-14
 -1        10 1.00712E-14
 -1        11 1.00712E-14
 -1        12 1.00712E-14
 -1        13 1.00712E-14
 -1        14 1.00712E-14
 -1        15 1.00712E-14
 -1        16 1.00712E-14
 -1        17 1.00712E-14
 -1        18 1.00712E-14
 -1        19 1.00712E-14
 -1        20 1.00712E-14
 -3
    1PSTEP                        41           9           1          
  100CL  109 810.9588666          20                     0    9           1
 -4  DISP        4    1
 -5  D1          1    2    1    0
 -5  D2          1    2    2    0
 -5  D3          1    2    3    0
 -5  ALL         1    2    0    0    1ALL
 -1         1 0.00000E+00 0.00000E+00 0.00000E+00
 -1         2 0.00000E+00 0.00000E+00 0.00000E+00
 -1         3 0.00000E+00 0.00000E+00 2.00000E-03
 -1         4 0.00000E+00 0.00000E+00 2.00000E-03
 -1         5 0.00000E+00 0.00000E+00 0.00000E+00
 -1         6 0.00000E+00 0.00000E+00 0.00000E+00
 -1         7 0.00000E+00 0.00000E+00 2.00000E-03
 -1         8 0.00000E+00 0.00000E+00 2.00000E-03
 -1         9 0.00000E+00 0.00000E+00 0.00000E+00
 -1        10 0.00000E+00 0.00000E+00 1.00000E-03
 -1        11 0.00000E+00 0.00000E+00 2.00000E-03
 -1        12 0.00000E+00 0.00000E+00 1.00000E-03
 -1        13 0.00000E+00 0.00000E+00 0.00000E+00
 -1        14 0.00000E+00 0.00000E+00 0.00000E+00
 -1        15 0.00000E+00 0.00000E+00 2.00000E-03
 -1        16 0.00000E+00 0.00000E+00 2.00000E-03
 -1        17 0.00000E+00 0.00000E+00 0.00000E+00
 -1        18 0.00000E+00 0.00000E+00 1.00000E-03
 -1        19 0.00000E+00 0.00000E+00 2.00000E-03
 -1        20 0.00000E+00 0.00000E+00 1.00000E-03
 -3
    1PSTEP                        42           9           1          
  100CL  109 810.9588666          20                     0    9           1
 -4  STRESS      6    1
 -5  SXX         1    4    1    1
 -5  SYY         1    4    2    2
 -5  SZZ         1    4    3    3
 -5  SXY         1    4    1    2
 -5  SYZ         1    4    2    3
 -5  SZX         1    4    3    1
 -1         1 1.55694E+02 1.55694E+02 2.88588E+02 0.00000E+00 2.74136E-14 4.77818E-14
 -1         2 1.55694E+02 1.55694E+02 2.88588E+02 0.00000E+00-4.31152E-14-5.37373E-14
 -1         3 1.55694E+02 1.55694E+02 2.88588E+02 0.00000E+00-6.70569E-15-7.96402E-14
 -1         4 1.55694E+02 1.55694E+02 2.88588E+02 0.00000E+00-1.53408E-14 1.17040E-13
 -1         5 1.55694E+02 1.55694E+02 2.88588E+02 0.00000E+00 1.96797E-14-1.68267E-14
 -1         6 1.55694E+02 1.55694E+02 2.88588E+02 0.00000E+00-1.42107E-14 5.75993E-16
 -1         7 1.55694E+02 1.55694E+02 2.88588E+02 0.00000E+00 1.28400E-13 9.38992E-14
 -1         8 1.55694E+02 1.55694E+02 2.88588E+02 0.00000E+00-1.95026E-16-2.50188E-14
 -1         9 1.55708E+02 1.55708E+02 2.88614E+02 0.00000E+00-2.78288E-14-1.35952E-14
 -1        10 1.55708E+02 1.55708E+02 2.88614E+02 0.00000E+00 2.92648E-14 2.55996E-14
 -1        11 1.55708E+02 1.55708E+02 2.88614E+02 0.00000E+00 1.69179E-14 1.48690E-14
 -1        12 1.55708E+02 1.55708E+02 2.88614E+02 0.00000E+00 1.60858E-14 1.14150E-14
 -1        13 1.55708E+02 1.55708E+02 2.88614E+02 0.00000E+00-1.14363E-14-1.68377E-15
 -1        14 1.55708E+02 1.55708E+02 2.88614E+02 0.00000E+00 2.72549E-14 5.94146E-15
 -1        15 1.55708E+02 1.55708E+02 2.88614E+02 0.00000E+00-7.73186E-14 1.65639E-14
 -1        16 1.55708E+02 1.55708E+02 2.88614E+02 0.00000E+00 2.95803E-14 2.77754E-14
 -1        17 1.55708E+02 1.55708E+02 2.88614E+02 0.00000E+00-3.23422E-15 1.51178E-14
 -1        18 1.55708E+02 1.55708E+02 2.88614E+02 0.00000E+00 4.05005E-14-5.21736E-14
 -1        19 1.55708E+02 1.55708E+02 2.88614E+02 0.00000E+00 3.47588E-14-7.44980E-15
 -1        20 1.55708E+02 1.55708E+02 2.88614E+02 0.00000E+00 1.53135E-14 2.97004E-14
 -3
    1PSTEP                        43           9           1          
  100CL  109 810.9588666          20                     0    9           1
 -4  TOSTRAIN    6    1
 -5  EXX         1    4    1    1
 -5  EYY         1    4    2    2
 -5  EZZ         1    4    3    3
 -5  EXY         1    4    1    2
 -5  EYZ         1    4    2    3
 -5  EZX         1    4    3    1
 -1         1 0.00000E+00 0.00000E+00 1.99992E-03 0.00000E+00 4.12546E-19 7.19066E-19
 -1         2 0.00000E+00 0.00000E+00 1.99992E-03 0.00000E+00-6.48839E-19-8.08690E-19
 -1         3 0.00000E+00 0.00000E+00 1.99992E-03 0.00000E+00-1.00914E-19-1.19850E-18
 -1         4 0.00000E+00 0.00000E+00 1.99992E-03 0.00000E+00-2.30863E-19 1.76134E-18
 -1         5 0.00000E+00 0.00000E+00 1.99992E-03 0.00000E+00 2.96159E-19-2.53224E-19
 -1         6 0.00000E+00 0.00000E+00 1.99992E-03 0.00000E+00-2.13856E-19 8.66809E-21
 -1         7 0.00000E+00 0.00000E+00 1.99992E-03 0.00000E+00 1.93228E-18 1.41309E-18
 -1         8 0.00000E+00 0.00000E+00 1.99992E-03 0.00000E+00-2.93494E-21-3.76507E-19
 -1         9 0.00000E+00 0.00000E+00 2.00010E-03 0.00000E+00-4.18795E-19-2.04593E-19
 -1        10 0.00000E+00 0.00000E+00 2.00010E-03 0.00000E+00 4.40404E-19 3.85247E-19
 -1        11 0.00000E+00 0.00000E+00 2.00010E-03 0.00000E+00 2.54597E-19 2.23763E-19
 -1        12 0.00000E+00 0.00000E+00 2.00010E-03 0.00000E+00 2.42075E-19 1.71784E-19
 -1        13 0.00000E+00 0.00000E+00 2.00010E-03 0.00000E+00-1.72104E-19-2.53389E-20
 -1        14 0.00000E+00 0.00000E+00 2.00010E-03 0.00000E+00 4.10158E-19 8.94127E-20
 -1        15 0.00000E+00 0.00000E+00 2.00010E-03 0.00000E+00-1.16356E-18 2.49269E-19
 -1        16 0.00000E+00 0.00000E+00 2.00010E-03 0.00000E+00 4.45153E-19 4.17991E-19
 -1        17 0.00000E+00 0.00000E+00 2.00010E-03 0.00000E+00-4.86716E-20 2.27507E-19
 -1        18 0.00000E+00 0.00000E+00 2.00010E-03 0.00000E+00 6.09490E-19-7.85158E-19
 -1        19 0.00000E+00 0.00000E+00 2.00010E-03 0.00000E+00 5.23083E-19-1.12112E-19
 -1        20 0.00000E+00 0.00000E+00 2.00010E-03 0.00000E+00 2.30452E-19 4.46960E-19
 -3
    1PSTEP                        44           9           1          
  100CL  109 810.9588666          20                     0    9           1
 -4  FORC        4    1
 -5  F1          1    2    1    0
 -5  F2          1    2    2    0
 -5  F3          1    2    3    0
 -5  ALL         1    2    0    0    1ALL
 -1         1-1.29750E+01-1.29750E+01 2.40500E+01
 -1         2-1.29750E+01 1.29750E+01 2.40500E+01
 -1         3-1.29750E+01 1.29750E+01-2.40500E+01
 -1         4-1.29750E+01-1.29750E+01-2.40500E+01
 -1         5 1.29750E+01-1.29750E+01 2.40500E+01
 -1         6 1.29750E+01 1.29750E+01 2.40500E+01
 -1         7 1.29750E+01 1.29750E+01-2.40500E+01
 -1         8 1.29750E+01-1.29750E+01-2.40500E+01
 -1         9 5.19000E+01-7.62252E-15-9.61999E+01
 -1        10 5.19000E+01-5.19000E+01 6.43929E-15
 -1        11 5.19000E+01 2.70978E-15 9.61999E+01
 -1        12 5.19000E+01 5.19000E+01 1.74305E-14
 -1        13-8.30249E-15 5.19000E+01-9.61999E+01
 -1        14 8.63516E-15-5.19000E+01-9.61999E+01
 -1        15 2.46626E-16-5.19000E+01 9.61999E+01
 -1        16-8.18432E-15 5.19000E+01 9.61999E+01
 -1        17-5.19000E+01 3.09897E-16-9.61999E+01
 -1        18-5.19000E+01-5.19000E+01 1.77636E-15
 -1        19-5.19000E+01 3.90895E-15 9.61999E+01
 -1        20-5.19000E+01 5.19000E+01 5.55112E-15
 -3
    1PSTEP                        45           9           1          
  100CL  109 810.9588666          20                     0    9           1
 -4  ERROR       1    1
 -5  STR(%)      1    1    0    0
 -1         1 1.00746E-14
 -1         2 1.00746E-14
 -1         3 1.00746E-14
 -1         4 1.00746E-14
 -1         5 1.00746E-14
 -1         6 1.00746E-14
 -1         7 1.00746E-14
 -1         8 1.00746E-14
 -1         9 1.00746E-14
 -1        10 1.00746E-14
 -1        11 1.00746E-14
 -1        12 1.00746E-14
 -1        13 1.00746E-14
 -1        14 1.00746E-14
 -1        15 1.00746E-14
 -1        16 1.00746E-14
 -1        17 1.00746E-14
 -1        18 1.00746E-14
 -1        19 1.00746E-14
 -1        20 1.00746E-14
 -3
    1PSTEP                        46          10           1          
  100CL  110 1224.506288          20                     0   10           1
 -4  DISP        4    1
 -5  D1          1    2    1    0
 -5  D2          1    2    2    0
 -5  D3          1    2    3    0
 -5  ALL         1    2    0    0    1ALL
 -1         1 0.00000E+00 0.00000E+00 0.00000E+00
 -1         2 0.00000E+00 0.00000E+00 0.00000E+00
 -1         3 0.00000E+00 0.00000E+00 2.00000E-03
 -1         4 0.00000E+00 0.00000E+00 2.00000E-03
 -1         5 0.00000E+00 0.00000E+00 0.00000E+00
 -1         6 0.00000E+00 0.00000E+00 0.00000E+00
 -1         7 0.00000E+00 0.00000E+00 2.00000E-03
 -1         8 0.00000E+00 0.00000E+00 2.00000E-03
 -1         9 0.00000E+00 0.00000E+00 0.00000E+00
 -1        10 0.00000E+00 0.00000E+00 1.00000E-03
 -1        11 0.00000E+00 0.00000E+00 2.00000E-03
 -1        12 0.00000E+00 0.00000E+00 1.00000E-03
 -1        13 0.00000E+00 0.00000E+00 0.00000E+00
 -1        14 0.00000E+00 0.00000E+00 0.00000E+00
 -1        15 0.00000E+00 0.00000E+00 2.00000E-03
 -1        16 0.00000E+00 0.00000E+00 2.00000E-03
 -1        17 0.00000E+00 0.00000E+00 0.00000E+00
 -1        18 0.00000E+00 0.00000E+00 1.00000E-03
 -1        19 0.00000E+00 0.00000E+00 2.00000E-03
 -1        20 0.00000E+00 0.00000E+00 1.00000E-03
 -3
    1PSTEP                        47          10           1          
  100CL  110 1224.506288          20                     0   10           1
 -4  STRESS      6    1
 -5  SXX         1    4    1    1
 -5  SYY         1    4    2    2
 -5  SZZ         1    4    3    3
 -5  SXY         1    4    1    2
 -5  SYZ         1    4    2    3
 -5  SZX         1    4    3    1
 -1         1 1.55767E+02 1.55767E+02 2.88441E+02 0.00000E+00 2.73681E-14 4.77025E-14
 -1         2 1.55767E+02 1.55767E+02 2.88441E+02 0.00000E+00-4.30436E-14-5.36481E-14
 -1         3 1.55767E+02 1.55767E+02 2.88441E+02 0.00000E+00-6.69456E-15-7.95080E-14
 -1         4 1.55767E+02 1.55767E+02 2.88441E+02 0.00000E+00-1.53153E-14 1.16846E-13
 -1         5 1.55767E+02 1.55767E+02 2.88441E+02 0.00000E+00 1.96470E-14-1.67988E-14
 -1         6 1.55767E+02 1.55767E+02 2.88441E+02 0.00000E+00-1.41871E-14 5.75037E-16
 -1         7 1.55767E+02 1.55767E+02 2.88441E+02 0.00000E+00 1.28187E-13 9.37434E-14
 -1         8 1.55767E+02 1.55767E+02 2.88441E+02 0.00000E+00-1.94702E-16-2.49773E-14
 -1         9 1.55781E+02 1.55781E+02 2.88467E+02 0.00000E+00-2.77827E-14-1.35726E-14
 -1        10 1.55781E+02 1.55781E+02 2.88467E+02 0.00000E+00 2.92162E-14 2.55571E-14
 -1        11 1.55781E+02 1.55781E+02 2.88467E+02 0.00000E+00 1.68898E-14 1.48444E-14
 -1        12 1.55781E+02 1.55781E+02 2.88467E+02 0.00000E+00 1.60591E-14 1.13961E-14
 -1        13 1.55781E+02 1.55781E+02 2.88467E+02 0.00000E+00-1.14173E-14-1.68097E-15
 -1        14 1.55781E+02 1.55781E+02 2.88467E+02 0.00000E+00 2.72097E-14 5.93160E-15
 -1        15 1.55781E+02 1.55781E+02 2.88467E+02 0.00000E+00-7.71903E-14 1.65364E-14
 -1        16 1.55781E+02 1.55781E+02 2.88467E+02 0.00000E+00 2.95312E-14 2.77293E-14
 -1        17 1.55781E+02 1.55781E+02 2.88467E+02 0.00000E+00-3.22885E-15 1.50927E-14
 -1        18 1.55781E+02 1.55781E+02 2.88467E+02 0.00000E+00 4.04333E-14-5.20870E-14
 -1        19 1.55781E+02 1.55781E+02 2.88467E+02 0.00000E+00 3.47011E-14-7.43743E-15
 -1        20 1.55781E+02 1.55781E+02 2.88467E+02 0.00000E+00 1.52880E-14 2.96511E-14
 -3
    1PSTEP                        48          10           1          
  100CL  110 1224.506288          20                     0   10           1
 -4  TOSTRAIN    6    1
 -5  EXX         1    4    1    1
 -5  EYY         1    4    2    2
 -5  EZZ         1    4    3    3
 -5  EXY         1    4    1    2
 -5  EYZ         1    4    2    3
 -5  EZX         1    4    3    1
 -1         1 0.00000E+00 0.00000E+00 1.99992E-03 0.00000E+00 4.12546E-19 7.19066E-19
 -1         2 0.00000E+00 0.00000E+00 1.99992E-03 0.00000E+00-6.48839E-19-8.08690E-19
 -1         3 0.00000E+00 0.00000E+00 1.99992E-03 0.00000E+00-1.00914E-19-1.19850E-18
 -1         4 0.00000E+00 0.00000E+00 1.99992E-03 0.00000E+00-2.30863E-19 1.76134E-18
 -1         5 0.00000E+00 0.00000E+00 1.99992E-03 0.00000E+00 2.96159E-19-2.53224E-19
 -1         6 0.00000E+00 0.00000E+00 1.99992E-03 0.00000E+00-2.13856E-19 8.66809E-21
 -1         7 0.00000E+00 0.00000E+00 1.99992E-03 0.00000E+00 1.93228E-18 1.41309E-18
 -1         8 0.00000E+00 0.00000E+00 1.99992E-03 0.00000E+00-2.93494E-21-3.76507E-19
 -1         9 0.00000E+00 0.00000E+00 2.00010E-03 0.00000E+00-4.18795E-19-2.04593E-19
 -1        10 0.00000E+00 0.00000E+00 2.00010E-03 0.00000E+00 4.40404E-19 3.85247E-19
 -1        11 0.00000E+00 0.00000E+00 2.00010E-03 0.00000E+00 2.54597E-19 2.23763E-19
 -1        12 0.00000E+00 0.00000E+00 2.00010E-03 0.00000E+00 2.42075E-19 1.71784E-19
 -1        13 0.00000E+00 0.00000E+00 2.00010E-03 0.00000E+00-1.72104E-19-2.53389E-20
 -1        14 0.00000E+00 0.00000E+00 2.00010E-03 0.00000E+00 4.10158E-19 8.94127E-20
 -1        15 0.00000E+00 0.00000E+00 2.00010E-03 0.00000E+00-1.16356E-18 2.49269E-19
 -1        16 0.00000E+00 0.00000E+00 2.00010E-03 0.00000E+00 4.45153E-19 4.17991E-19
 -1        17 0.00000E+00 0.00000E+00 2.00010E-03 0.00000E+00-4.86716E-20 2.27507E-19
 -1        18 0.00000E+00 0.00000E+00 2.00010E-03 0.00000E+00 6.09490E-19-7.85158E-19
 -1        19 0.00000E+00 0.00000E+00 2.00010E-03 0.00000E+00 5.23083E-19-1.12112E-19
 -1        20 0.00000E+00 0.00000E+00 2.00010E-03 0.00000E+00 2.30452E-19 4.46960E-19
 -3
    1PSTEP                        49          10           1          
  100CL  110 1224.506288          20                     0   10           1
 -4  FORC        4    1
 -5  F1          1    2    1    0
 -5  F2          1    2    2    0
 -5  F3          1    2    3    0
 -5  ALL         1    2    0    0    1ALL
 -1         1-1.29811E+01-1.29811E+01 2.40377E+01
 -1         2-1.29811E+01 1.29811E+01 2.40377E+01
 -1         3-1.29811E+01 1.29811E+01-2.40377E+01
 -1         4-1.29811E+01-1.29811E+01-2.40377E+01
 -1         5 1.29811E+01-1.29811E+01 2.40377E+01
 -1         6 1.29811E+01 1.29811E+01 2.40377E+01
 -1         7 1.29811E+01 1.29811E+01-2.40377E+01
 -1         8 1.29811E+01-1.29811E+01-2.40377E+01
 -1         9 5.19246E+01-6.29018E-15-9.61509E+01
 -1        10 5.19246E+01-5.19246E+01-3.10862E-15
 -1        11 5.19246E+01 1.82153E-15 9.61509E+01
 -1        12 5.19246E+01 5.19246E+01 1.15741E-14
 -1        13 2.60551E-15 5.19246E+01-9.61509E+01
 -1        14 1.99598E-14-5.19246E+01-9.61509E+01
 -1        15 7.35164E-15-5.19246E+01 9.61509E+01
 -1        16-1.28473E-14 5.19246E+01 9.61509E+01
 -1        17-5.19246E+01-5.77691E-16-9.61509E+01
 -1        18-5.19246E+01-5.19246E+01 3.55271E-15
 -1        19-5.19246E+01 3.55646E-16 9.61509E+01
 -1        20-5.19246E+01 5.19246E+01 1.08802E-14
 -3
    1PSTEP                        50          10           1          
  100CL  110 1224.506288          20                     0   10           1
 -4  ERROR       1    1
 -5  STR(%)      1    1    0    0
 -1         1 2.01596E-15
 -1         2 2.01596E-15
 -1         3 2.01596E-15
 -1         4 2.01596E-15
 -1         5 2.01596E-15
 -1         6 2.01596E-15
 -1         7 2.01596E-15
 -1         8 2.01596E-15
 -1         9 2.01596E-15
 -1        10 2.01596E-15
 -1        11 2.01596E-15
 -1        12 2.01596E-15
 -1        13 2.01596E-15
 -1        14 2.01596E-15
 -1        15 2.01596E-15
 -1        16 2.01596E-15
 -1        17 2.01596E-15
 -1        18 2.01596E-15
 -1        19 2.01596E-15
 -1        20 2.01596E-15
 -3
    1PSTEP                        51          11           1          
  100CL  111 1844.827420          20                     0   11           1
 -4  DISP        4    1
 -5  D1          1    2    1    0
 -5  D2          1    2    2    0
 -5  D3          1    2    3    0
 -5  ALL         1    2    0    0    1ALL
 -1         1 0.00000E+00 0.00000E+00 0.00000E+00
 -1         2 0.00000E+00 0.00000E+00 0.00000E+00
 -1         3 0.00000E+00 0.00000E+00 2.00000E-03
 -1         4 0.00000E+00 0.00000E+00 2.00000E-03
 -1         5 0.00000E+00 0.00000E+00 0.00000E+00
 -1         6 0.00000E+00 0.00000E+00 0.00000E+00
 -1         7 0.00000E+00 0.00000E+00 2.00000E-03
 -1         8 0.00000E+00 0.00000E+00 2.00000E-03
 -1         9 0.00000E+00 0.00000E+00 0.00000E+00
 -1        10 0.00000E+00 0.00000E+00 1.00000E-03
 -1        11 0.00000E+00 0.00000E+00 2.00000E-03
 -1        12 0.00000E+00 0.00000E+00 1.00000E-03
 -1        13 0.00000E+00 0.00000E+00 0.00000E+00
 -1        14 0.00000E+00 0.00000E+00 0.00000E+00
 -1        15 0.00000E+00 0.00000E+00 2.00000E-03
 -1        16 0.00000E+00 0.00000E+00 2.00000E-03
 -1        17 0.00000E+00 0.00000E+00 0.00000E+00
 -1        18 0.00000E+00 0.00000E+00 1.00000E-03
 -1        19 0.00000E+00 0.00000E+00 2.00000E-03
 -1        20 0.00000E+00 0.00000E+00 1.00000E-03
 -3
    1PSTEP                        52          11           1          
  100CL  111 1844.827420          20                     0   11           1
 -4  STRESS      6    1
 -5  SXX         1    4    1    1
 -5  SYY         1    4    2    2
 -5  SZZ         1    4    3    3
 -5  SXY         1    4    1    2
 -5  SYZ         1    4    2    3
 -5  SZX         1    4    3    1
 -1         1 1.55877E+02 1.55877E+02 2.88221E+02 0.00000E+00 2.73000E-14 4.75838E-14
 -1         2 1.55877E+02 1.55877E+02 2.88221E+02 0.00000E+00-4.29366E-14-5.35146E-14
 -1         3 1.55877E+02 1.55877E+02 2.88221E+02 0.00000E+00-6.67791E-15-7.93103E-14
 -1         4 1.55877E+02 1.55877E+02 2.88221E+02 0.00000E+00-1.52772E-14 1.16556E-13
 -1         5 1.55877E+02 1.55877E+02 2.88221E+02 0.00000E+00 1.95982E-14-1.67570E-14
 -1         6 1.55877E+02 1.55877E+02 2.88221E+02 0.00000E+00-1.41518E-14 5.73607E-16
 -1         7 1.55877E+02 1.55877E+02 2.88221E+02 0.00000E+00 1.27868E-13 9.35103E-14
 -1         8 1.55877E+02 1.55877E+02 2.88221E+02 0.00000E+00-1.94218E-16-2.49152E-14
 -1         9 1.55891E+02 1.55891E+02 2.88247E+02 0.00000E+00-2.77136E-14-1.35388E-14
 -1        10 1.55891E+02 1.55891E+02 2.88247E+02 0.00000E+00 2.91435E-14 2.54935E-14
 -1        11 1.55891E+02 1.55891E+02 2.88247E+02 0.00000E+00 1.68478E-14 1.48074E-14
 -1        12 1.55891E+02 1.55891E+02 2.88247E+02 0.00000E+00 1.60192E-14 1.13678E-14
 -1        13 1.55891E+02 1.55891E+02 2.88247E+02 0.00000E+00-1.13889E-14-1.67679E-15
 -1        14 1.55891E+02 1.55891E+02 2.88247E+02 0.00000E+00 2.71420E-14 5.91684E-15
 -1        15 1.55891E+02 1.55891E+02 2.88247E+02 0.00000E+00-7.69984E-14 1.64953E-14
 -1        16 1.55891E+02 1.55891E+02 2.88247E+02 0.00000E+00 2.94578E-14 2.76603E-14
 -1        17 1.55891E+02 1.55891E+02 2.88247E+02 0.00000E+00-3.22082E-15 1.50552E-14
 -1        18 1.55891E+02 1.55891E+02 2.88247E+02 0.00000E+00 4.03327E-14-5.19575E-14
 -1        19 1.55891E+02 1.55891E+02 2.88247E+02 0.00000E+00 3.46148E-14-7.41894E-15
 -1        20 1.55891E+02 1.55891E+02 2.88247E+02 0.00000E+00 1.52500E-14 2.95774E-14
 -3
    1PSTEP                        53          11           1          
  100CL  111 1844.827420          20                     0   11           1
 -4  TOSTRAIN    6    1
 -5  EXX         1    4    1    1
 -5  EYY         1    4    2    2
 -5  EZZ         1    4    3    3
 -5  EXY         1    4    1    2
 -5  EYZ         1    4    2    3
 -5  EZX         1    4    3    1
 -1         1 0.00000E+00 0.00000E+00 1.99992E-03 0.00000E+00 4.12546E-19 7.19066E-19
 -1         2 0.00000E+00 0.00000E+00 1.99992E-03 0.00000E+00-6.48839E-19-8.08690E-19
 -1         3 0.00000E+00 0.00000E+00 1.99992E-03 0.00000E+00-1.00914E-19-1.19850E-18
 -1         4 0.00000E+00 0.00000E+00 1.99992E-03 0.00000E+00-2.30863E-19 1.76134E-18
 -1         5 0.00000E+00 0.00000E+00 1.99992E-03 0.00000E+00 2.96159E-19-2.53224E-19
 -1         6 0.00000E+00 0.00000E+00 1.99992E-03 0.00000E+00-2.13856E-19 8.66809E-21
 -1         7 0.00000E+00 0.00000E+00 1.99992E-03 0.00000E+00 1.93228E-18 1.41309E-18
 -1         8 0.00000E+00 0.00000E+00 1.99992E-03 0.00000E+00-2.93494E-21-3.76507E-19
 -1         9 0.00000E+00 0.00000E+00 2.00010E-03 0.00000E+00-4.18795E-19-2.04593E-19
 -1        10 0.00000E+00 0.00000E+00 2.00010E-03 0.00000E+00 4.40404E-19 3.85247E-19
 -1        11 0.00000E+00 0.00000E+00 2.00010E-03 0.00000E+00 2.54597E-19 2.23763E-19
 -1        12 0.00000E+00 0.00000E+00 2.00010E-03 0.00000E+00 2.42075E-19 1.71784E-19
 -1        13 0.00000E+00 0.00000E+00 2.00010E-03 0.00000E+00-1.72104E-19-2.53389E-20
 -1        14 0.00000E+00 0.00000E+00 2.00010E-03 0.00000E+00 4.10158E-19 8.94127E-20
 -1        15 0.00000E+00 0.00000E+00 2.00010E-03 0.00000E+00-1.16356E-18 2.49269E-19
 -1        16 0.00000E+00 0.00000E+00 2.00010E-03 0.00000E+00 4.45153E-19 4.17991E-19
 -1        17 0.00000E+00 0.00000E+00 2.00010E-03 0.00000E+00-4.86716E-20 2.27507E-19
 -1        18 0.00000E+00 0.00000E+00 2.00010E-03 0.00000E+00 6.09490E-19-7.85158E-19
 -1        19 0.00000E+00 0.00000E+00 2.00010E-03 0.00000E+00 5.23083E-19-1.12112E-19
 -1        20 0.00000E+00 0.00000E+00 2.00010E-03 0.00000E+00 2.30452E-19 4.46960E-19
 -3
    1PSTEP                        54          11           1          
  100CL  111 1844.827420          20                     0   11           1
 -4  FORC        4    1
 -5  F1          1    2    1    0
 -5  F2          1    2    2    0
 -5  F3          1    2    3    0
 -5  ALL         1    2    0    0    1ALL
 -1         1-1.29903E+01-1.29903E+01 2.40194E+01
 -1         2-1.29903E+01 1.29903E+01 2.40194E+01
 -1         3-1.29903E+01 1.29903E+01-2.40194E+01
 -1         4-1.29903E+01-1.29903E+01-2.40194E+01
 -1         5 1.29903E+01-1.29903E+01 2.40194E+01
 -1         6 1.29903E+01 1.29903E+01 2.40194E+01
 -1         7 1.29903E+01 1.29903E+01-2.40194E+01
 -1         8 1.29903E+01-1.29903E+01-2.40194E+01
 -1         9 5.19612E+01-5.90149E-15-9.60776E+01
 -1        10 5.19612E+01-5.19612E+01 4.44089E-15
 -1        11 5.19612E+01 2.04346E-15 9.60776E+01
 -1        12 5.19612E+01 5.19612E+01 2.16216E-14
 -1        13 1.16261E-14 5.19612E+01-9.60776E+01
 -1        14 1.64077E-14-5.19612E+01-9.60776E+01
 -1        15-3.30711E-15-5.19612E+01 9.60776E+01
 -1        16-6.34938E-16 5.19612E+01 9.60776E+01
 -1        17-5.19612E+01 5.33417E-16-9.60776E+01
 -1        18-5.19612E+01-5.19612E+01-3.55271E-15
 -1        19-5.19612E+01 3.90748E-15 9.60776E+01
 -1        20-5.19612E+01 5.19612E+01-6.66134E-16
 -3
    1PSTEP                        55          11           1          
  100CL  111 1844.827420          20                     0   11           1
 -4  ERROR       1    1
 -5  STR(%)      1    1    0    0
 -1         1 1.21050E-14
 -1         2 1.21050E-14
 -1         3 1.21050E-14
 -1         4 1.21050E-14
 -1         5 1.21050E-14
 -1         6 1.21050E-14
 -1         7 1.21050E-14
 -1         8 1.21050E-14
 -1         9 1.21050E-14
 -1        10 1.21050E-14
 -1        11 1.21050E-14
 -1        12 1.21050E-14
 -1        13 1.21050E-14
 -1        14 1.21050E-14
 -1        15 1.21050E-14
 -1        16 1.21050E-14
 -1        17 1.21050E-14
 -1        18 1.21050E-14
 -1        19 1.21050E-14
 -1        20 1.21050E-14
 -3
    1PSTEP                        56          12           1          
  100CL  112 2775.309118          20                     0   12           1
 -4  DISP        4    1
 -5  D1          1    2    1    0
 -5  D2          1    2    2    0
 -5  D3          1    2    3    0
 -5  ALL         1    2    0    0    1ALL
 -1         1 0.00000E+00 0.00000E+00 0.00000E+00
 -1         2 0.00000E+00 0.00000E+00 0.00000E+00
 -1         3 0.00000E+00 0.00000E+00 2.00000E-03
 -1         4 0.00000E+00 0.00000E+00 2.00000E-03
 -1         5 0.00000E+00 0.00000E+00 0.00000E+00
 -1         6 0.00000E+00 0.00000E+00 0.00000E+00
 -1         7 0.00000E+00 0.00000E+00 2.00000E-03
 -1         8 0.00000E+00 0.00000E+00 2.00000E-03
 -1         9 0.00000E+00 0.00000E+00 0.00000E+00
 -1        10 0.00000E+00 0.00000E+00 1.00000E-03
 -1        11 0.00000E+00 0.00000E+00 2.00000E-03
 -1        12 0.00000E+00 0.00000E+00 1.00000E-03
 -1        13 0.00000E+00 0.00000E+00 0.00000E+00
 -1        14 0.00000E+00 0.00000E+00 0.00000E+00
 -1        15 0.00000E+00 0.00000E+00 2.00000E-03
 -1        16 0.00000E+00 0.00000E+00 2.00000E-03
 -1        17 0.00000E+00 0.00000E+00 0.00000E+00
 -1        18 0.00000E+00 0.00000E+00 1.00000E-03
 -1        19 0.00000E+00 0.00000E+00 2.00000E-03
 -1        20 0.00000E+00 0.00000E+00 1.00000E-03
 -3
    1PSTEP                        57          12           1          
  100CL  112 2775.309118          20                     0   12           1
 -4  STRESS      6    1
 -5  SXX         1    4    1    1
 -5  SYY         1    4    2    2
 -5  SZZ         1    4    3    3
 -5  SXY         1    4    1    2
 -5  SYZ         1    4    2    3
 -5  SZX         1    4    3    1
 -1         1 1.56042E+02 1.56042E+02 2.87892E+02 0.00000E+00 2.71983E-14 4.74065E-14
 -1         2 1.56042E+02 1.56042E+02 2.87892E+02 0.00000E+00-4.27766E-14-5.33152E-14
 -1         3 1.56042E+02 1.56042E+02 2.87892E+02 0.00000E+00-6.65303E-15-7.90148E-14
 -1         4 1.56042E+02 1.56042E+02 2.87892E+02 0.00000E+00-1.52203E-14 1.16121E-13
 -1         5 1.56042E+02 1.56042E+02 2.87892E+02 0.00000E+00 1.95251E-14-1.66946E-14
 -1         6 1.56042E+02 1.56042E+02 2.87892E+02 0.00000E+00-1.40991E-14 5.71470E-16
 -1         7 1.56042E+02 1.56042E+02 2.87892E+02 0.00000E+00 1.27391E-13 9.31619E-14
 -1         8 1.56042E+02 1.56042E+02 2.87892E+02 0.00000E+00-1.93494E-16-2.48223E-14
 -1         9 1.56056E+02 1.56056E+02 2.87918E+02 0.00000E+00-2.76103E-14-1.34884E-14
 -1        10 1.56056E+02 1.56056E+02 2.87918E+02 0.00000E+00 2.90350E-14 2.53985E-14
 -1        11 1.56056E+02 1.56056E+02 2.87918E+02 0.00000E+00 1.67850E-14 1.47523E-14
 -1        12 1.56056E+02 1.56056E+02 2.87918E+02 0.00000E+00 1.59595E-14 1.13254E-14
 -1        13 1.56056E+02 1.56056E+02 2.87918E+02 0.00000E+00-1.13465E-14-1.67054E-15
 -1        14 1.56056E+02 1.56056E+02 2.87918E+02 0.00000E+00 2.70409E-14 5.89480E-15
 -1        15 1.56056E+02 1.56056E+02 2.87918E+02 0.00000E+00-7.67115E-14 1.64338E-14
 -1        16 1.56056E+02 1.56056E+02 2.87918E+02 0.00000E+00 2.93480E-14 2.75573E-14
 -1        17 1.56056E+02 1.56056E+02 2.87918E+02 0.00000E+00-3.20882E-15 1.49991E-14
 -1        18 1.56056E+02 1.56056E+02 2.87918E+02 0.00000E+00 4.01824E-14-5.17639E-14
 -1        19 1.56056E+02 1.56056E+02 2.87918E+02 0.00000E+00 3.44858E-14-7.39129E-15
 -1        20 1.56056E+02 1.56056E+02 2.87918E+02 0.00000E+00 1.51932E-14 2.94672E-14
 -3
    1PSTEP                        58          12           1          
  100CL  112 2775.309118          20                     0   12           1
 -4  TOSTRAIN    6    1
 -5  EXX         1    4    1    1
 -5  EYY         1    4    2    2
 -5  EZZ         1    4    3    3
 -5  EXY         1    4    1    2
 -5  EYZ         1    4    2    3
 -5  EZX         1    4    3    1
 -1         1 0.00000E+00 0.00000E+00 1.99992E-03 0.00000E+00 4.12546E-19 7.19066E-19
 -1         2 0.00000E+00 0.00000E+00 1.99992E-03 0.00000E+00-6.48839E-19-8.08690E-19
 -1         3 0.00000E+00 0.00000E+00 1.99992E-03 0.00000E+00-1.00914E-19-1.19850E-18
 -1         4 0.00000E+00 0.00000E+00 1.99992E-03 0.00000E+00-2.30863E-19 1.76134E-18
 -1         5 0.00000E+00 0.00000E+00 1.99992E-03 0.00000E+00 2.96159E-19-2.53224E-19
 -1         6 0.00000E+00 0.00000E+00 1.99992E-03 0.00000E+00-2.13856E-19 8.66809E-21
 -1         7 0.00000E+00 0.00000E+00 1.99992E-03 0.00000E+00 1.93228E-18 1.41309E-18
 -1         8 0.00000E+00 0.00000E+00 1.99992E-03 0.00000E+00-2.93494E-21-3.76507E-19
 -1         9 0.00000E+00 0.00000E+00 2.00010E-03 0.00000E+00-4.18795E-19-2.04593E-19
 -1        10 0.00000E+00 0.00000E+00 2.00010E-03 0.00000E+00 4.40404E-19 3.85247E-19
 -1        11 0.00000E+00 0.00000E+00 2.00010E-03 0.00000E+00 2.54597E-19 2.23763E-19
 -1        12 0.00000E+00 0.00000E+00 2.00010E-03 0.00000E+00 2.42075E-19 1.71784E-19
 -1        13 0.00000E+00 0.00000E+00 2.00010E-03 0.00000E+00-1.72104E-19-2.53389E-20
 -1        14 0.00000E+00 0.00000E+00 2.00010E-03 0.00000E+00 4.10158E-19 8.94127E-20
 -1        15 0.00000E+00 0.00000E+00 2.00010E-03 0.00000E+00-1.16356E-18 2.49269E-19
 -1        16 0.00000E+00 0.00000E+00 2.00010E-03 0.00000E+00 4.45153E-19 4.17991E-19
 -1        17 0.00000E+00 0.00000E+00 2.00010E-03 0.00000E+00-4.86716E-20 2.27507E-19
 -1        18 0.00000E+00 0.00000E+00 2.00010E-03 0.00000E+00 6.09490E-19-7.85158E-19
 -1        19 0.00000E+00 0.00000E+00 2.00010E-03 0.00000E+00 5.23083E-19-1.12112E-19
 -1        20 0.00000E+00 0.00000E+00 2.00010E-03 0.00000E+00 2.30452E-19 4.46960E-19
 -3
    1PSTEP                        59          12           1          
  100CL  112 2775.309118          20                     0   12           1
 -4  FORC        4    1
 -5  F1          1    2    1    0
 -5  F2          1    2    2    0
 -5  F3          1    2    3    0
 -5  ALL         1    2    0    0    1ALL
 -1         1-1.30040E+01-1.30040E+01 2.39920E+01
 -1         2-1.30040E+01 1.30040E+01 2.39920E+01
 -1         3-1.30040E+01 1.30040E+01-2.39920E+01
 -1         4-1.30040E+01-1.30040E+01-2.39920E+01
 -1         5 1.30040E+01-1.30040E+01 2.39920E+01
 -1         6 1.30040E+01 1.30040E+01 2.39920E+01
 -1         7 1.30040E+01 1.30040E+01-2.39920E+01
 -1         8 1.30040E+01-1.30040E+01-2.39920E+01
 -1         9 5.20160E+01-9.56506E-15-9.59680E+01
 -1        10 5.20160E+01-5.20160E+01-2.22045E-16
 -1        11 5.20160E+01 4.26374E-15 9.59680E+01
 -1        12 5.20160E+01 5.20160E+01 1.88460E-14
 -1        13-3.86135E-15 5.20160E+01-9.59680E+01
 -1        14 1.50764E-14-5.20160E+01-9.59680E+01
 -1        15-1.53167E-15-5.20160E+01 9.59680E+01
 -1        16-7.07435E-15 5.20160E+01 9.59680E+01
 -1        17-5.20160E+01-3.53440E-16-9.59680E+01
 -1        18-5.20160E+01-5.20160E+01-5.32907E-15
 -1        19-5.20160E+01 2.12980E-15 9.59680E+01
 -1        20-5.20160E+01 5.20160E+01-2.44249E-15
 -3
    1PSTEP                        60          12           1          
  100CL  112 2775.309118          20                     0   12           1
 -4  ERROR       1    1
 -5  STR(%)      1    1    0    0
 -1         1 8.07920E-15
 -1         2 8.07920E-15
 -1         3 8.07920E-15
 -1         4 8.07920E-15
 -1         5 8.07920E-15
 -1         6 8.07920E-15
 -1         7 8.07920E-15
 -1         8 8.07920E-15
 -1         9 8.07920E-15
 -1        10 8.07920E-15
 -1        11 8.07920E-15
 -1        12 8.07920E-15
 -1        13 8.07920E-15
 -1        14 8.07920E-15
 -1        15 8.07920E-15
 -1        16 8.07920E-15
 -1        17 8.07920E-15
 -1        18 8.07920E-15
 -1        19 8.07920E-15
 -1        20 8.07920E-15
 -3
    1PSTEP                        61          13           1          
  100CL  113 4171.031666          20                     0   13           1
 -4  DISP        4    1
 -5  D1          1    2    1    0
 -5  D2          1    2    2    0
 -5  D3          1    2    3    0
 -5  ALL         1    2    0    0    1ALL
 -1         1 0.00000E+00 0.00000E+00 0.00000E+00
 -1         2 0.00000E+00 0.00000E+00 0.00000E+00
 -1         3 0.00000E+00 0.00000E+00 2.00000E-03
 -1         4 0.00000E+00 0.00000E+00 2.00000E-03
 -1         5 0.00000E+00 0.00000E+00 0.00000E+00
 -1         6 0.00000E+00 0.00000E+00 0.00000E+00
 -1         7 0.00000E+00 0.00000E+00 2.00000E-03
 -1         8 0.00000E+00 0.00000E+00 2.00000E-03
 -1         9 0.00000E+00 0.00000E+00 0.00000E+00
 -1        10 0.00000E+00 0.00000E+00 1.00000E-03
 -1        11 0.00000E+00 0.00000E+00 2.00000E-03
 -1        12 0.00000E+00 0.00000E+00 1.00000E-03
 -1        13 0.00000E+00 0.00000E+00 0.00000E+00
 -1        14 0.00000E+00 0.00000E+00 0.00000E+00
 -1        15 0.00000E+00 0.00000E+00 2.00000E-03
 -1        16 0.00000E+00 0.00000E+00 2.00000E-03
 -1        17 0.00000E+00 0.00000E+00 0.00000E+00
 -1        18 0.00000E+00 0.00000E+00 1.00000E-03
 -1        19 0.00000E+00 0.00000E+00 2.00000E-03
 -1        20 0.00000E+00 0.00000E+00 1.00000E-03
 -3
    1PSTEP                        62          13           1          
  100CL  113 4171.031666          20                     0   13           1
 -4  STRESS      6    1
 -5  SXX         1    4    1    1
 -5  SYY         1    4    2    2
 -5  SZZ         1    4    3    3
 -5  SXY         1    4    1    2
 -5  SYZ         1    4    2    3
 -5  SZX         1    4    3    1
 -1         1 1.56287E+02 1.56287E+02 2.87402E+02 0.00000E+00 2.70466E-14 4.71421E-14
 -1         2 1.56287E+02 1.56287E+02 2.87402E+02 0.00000E+00-4.25380E-14-5.30178E-14
 -1         3 1.56287E+02 1.56287E+02 2.87402E+02 0.00000E+00-6.61592E-15-7.85740E-14
 -1         4 1.56287E+02 1.56287E+02 2.87402E+02 0.00000E+00-1.51354E-14 1.15474E-13
 -1         5 1.56287E+02 1.56287E+02 2.87402E+02 0.00000E+00 1.94162E-14-1.66014E-14
 -1         6 1.56287E+02 1.56287E+02 2.87402E+02 0.00000E+00-1.40205E-14 5.68282E-16
 -1         7 1.56287E+02 1.56287E+02 2.87402E+02 0.00000E+00 1.26681E-13 9.26421E-14
 -1         8 1.56287E+02 1.56287E+02 2.87402E+02 0.00000E+00-1.92415E-16-2.46838E-14
 -1         9 1.56301E+02 1.56301E+02 2.87428E+02 0.00000E+00-2.74563E-14-1.34131E-14
 -1        10 1.56301E+02 1.56301E+02 2.87428E+02 0.00000E+00 2.88730E-14 2.52569E-14
 -1        11 1.56301E+02 1.56301E+02 2.87428E+02 0.00000E+00 1.66914E-14 1.46700E-14
 -1        12 1.56301E+02 1.56301E+02 2.87428E+02 0.00000E+00 1.58705E-14 1.12622E-14
 -1        13 1.56301E+02 1.56301E+02 2.87428E+02 0.00000E+00-1.12832E-14-1.66123E-15
 -1        14 1.56301E+02 1.56301E+02 2.87428E+02 0.00000E+00 2.68901E-14 5.86191E-15
 -1        15 1.56301E+02 1.56301E+02 2.87428E+02 0.00000E+00-7.62835E-14 1.63421E-14
 -1        16 1.56301E+02 1.56301E+02 2.87428E+02 0.00000E+00 2.91843E-14 2.74035E-14
 -1        17 1.56301E+02 1.56301E+02 2.87428E+02 0.00000E+00-3.19092E-15 1.49154E-14
 -1        18 1.56301E+02 1.56301E+02 2.87428E+02 0.00000E+00 3.99583E-14-5.14751E-14
 -1        19 1.56301E+02 1.56301E+02 2.87428E+02 0.00000E+00 3.42934E-14-7.35006E-15
 -1        20 1.56301E+02 1.56301E+02 2.87428E+02 0.00000E+00 1.51084E-14 2.93028E-14
 -3
    1PSTEP                        63          13           1          
  100CL  113 4171.031666          20                     0   13           1
 -4  TOSTRAIN    6    1
 -5  EXX         1    4    1    1
 -5  EYY         1    4    2    2
 -5  EZZ         1    4    3    3
 -5  EXY         1    4    1    2
 -5  EYZ         1    4    2    3
 -5  EZX         1    4    3    1
 -1         1 0.00000E+00 0.00000E+00 1.99992E-03 0.00000E+00 4.12546E-19 7.19066E-19
 -1         2 0.00000E+00 0.00000E+00 1.99992E-03 0.00000E+00-6.48839E-19-8.08690E-19
 -1         3 0.00000E+00 0.00000E+00 1.99992E-03 0.00000E+00-1.00914E-19-1.19850E-18
 -1         4 0.00000E+00 0.00000E+00 1.99992E-03 0.00000E+00-2.30863E-19 1.76134E-18
 -1         5 0.00000E+00 0.00000E+00 1.99992E-03 0.00000E+00 2.96159E-19-2.53224E-19
 -1         6 0.00000E+00 0.00000E+00 1.99992E-03 0.00000E+00-2.13856E-19 8.66809E-21
 -1         7 0.00000E+00 0.00000E+00 1.99992E-03 0.00000E+00 1.93228E-18 1.41309E-18
 -1         8 0.00000E+00 0.00000E+00 1.99992E-03 0.00000E+00-2.93494E-21-3.76507E-19
 -1         9 0.00000E+00 0.00000E+00 2.00010E-03 0.00000E+00-4.18795E-19-2.04593E-19
 -1        10 0.00000E+00 0.00000E+00 2.00010E-03 0.00000E+00 4.40404E-19 3.85247E-19
 -1        11 0.00000E+00 0.00000E+00 2.00010E-03 0.00000E+00 2.54597E-19 2.23763E-19
 -1        12 0.00000E+00 0.00000E+00 2.00010E-03 0.00000E+00 2.42075E-19 1.71784E-19
 -1        13 0.00000E+00 0.00000E+00 2.00010E-03 0.00000E+00-1.72104E-19-2.53389E-20
 -1        14 0.00000E+00 0.00000E+00 2.00010E-03 0.00000E+00 4.10158E-19 8.94127E-20
 -1        15 0.00000E+00 0.00000E+00 2.00010E-03 0.00000E+00-1.16356E-18 2.49269E-19
 -1        16 0.00000E+00 0.00000E+00 2.00010E-03 0.00000E+00 4.45153E-19 4.17991E-19
 -1        17 0.00000E+00 0.00000E+00 2.00010E-03 0.00000E+00-4.86716E-20 2.27507E-19
 -1        18 0.00000E+00 0.00000E+00 2.00010E-03 0.00000E+00 6.09490E-19-7.85158E-19
 -1        19 0.00000E+00 0.00000E+00 2.00010E-03 0.00000E+00 5.23083E-19-1.12112E-19
 -1        20 0.00000E+00 0.00000E+00 2.00010E-03 0.00000E+00 2.30452E-19 4.46960E-19
 -3
    1PSTEP                        64          13           1          
  100CL  113 4171.031666          20                     0   13           1
 -4  FORC        4    1
 -5  F1          1    2    1    0
 -5  F2          1    2    2    0
 -5  F3          1    2    3    0
 -5  ALL         1    2    0    0    1ALL
 -1         1-1.30244E+01-1.30244E+01 2.39511E+01
 -1         2-1.30244E+01 1.30244E+01 2.39511E+01
 -1         3-1.30244E+01 1.30244E+01-2.39511E+01
 -1         4-1.30244E+01-1.30244E+01-2.39511E+01
 -1         5 1.30244E+01-1.30244E+01 2.39511E+01
 -1         6 1.30244E+01 1.30244E+01 2.39511E+01
 -1         7 1.30244E+01 1.30244E+01-2.39511E+01
 -1         8 1.30244E+01-1.30244E+01-2.39511E+01
 -1         9 5.20977E+01-6.23414E-15-9.58045E+01
 -1        10 5.20977E+01-5.20977E+01-2.22045E-16
 -1        11 5.20977E+01 5.37371E-15 9.58045E+01
 -1        12 5.20977E+01 5.20977E+01 2.09555E-14
 -1        13-1.25215E-15 5.20977E+01-9.58045E+01
 -1        14 1.04148E-14-5.20977E+01-9.58045E+01
 -1        15 5.57239E-15-5.20977E+01 9.58045E+01
 -1        16-3.74385E-15 5.20977E+01 9.58045E+01
 -1        17-5.20977E+01-1.23965E-15-9.58045E+01
 -1        18-5.20977E+01-5.20977E+01 0.00000E+00
 -1        19-5.20977E+01 3.90418E-15 9.58045E+01
 -1        20-5.20977E+01 5.20977E+01 2.66454E-15
 -3
    1PSTEP                        65          13           1          
  100CL  113 4171.031666          20                     0   13           1
 -4  ERROR       1    1
 -5  STR(%)      1    1    0    0
 -1         1 8.09298E-15
 -1         2 8.09298E-15
 -1         3 8.09298E-15
 -1         4 8.09298E-15
 -1         5 8.09298E-15
 -1         6 8.09298E-15
 -1         7 8.09298E-15
 -1         8 8.09298E-15
 -1         9 8.09298E-15
 -1        10 8.09298E-15
 -1        11 8.09298E-15
 -1        12 8.09298E-15
 -1        13 8.09298E-15
 -1        14 8.09298E-15
 -1        15 8.09298E-15
 -1        16 8.09298E-15
 -1        17 8.09298E-15
 -1        18 8.09298E-15
 -1        19 8.09298E-15
 -1        20 8.09298E-15
 -3
    1PSTEP                        66          14           1          
  100CL  114 6264.615487          20                     0   14           1
 -4  DISP        4    1
 -5  D1          1    2    1    0
 -5  D2          1    2    2    0
 -5  D3          1    2    3    0
 -5  ALL         1    2    0    0    1ALL
 -1         1 0.00000E+00 0.00000E+00 0.00000E+00
 -1         2 0.00000E+00 0.00000E+00 0.00000E+00
 -1         3 0.00000E+00 0.00000E+00 2.00000E-03
 -1         4 0.00000E+00 0.00000E+00 2.00000E-03
 -1         5 0.00000E+00 0.00000E+00 0.00000E+00
 -1         6 0.00000E+00 0.00000E+00 0.00000E+00
 -1         7 0.00000E+00 0.00000E+00 2.00000E-03
 -1         8 0.00000E+00 0.00000E+00 2.00000E-03
 -1         9 0.00000E+00 0.00000E+00 0.00000E+00
 -1        10 0.00000E+00 0.00000E+00 1.00000E-03
 -1        11 0.00000E+00 0.00000E+00 2.00000E-03
 -1        12 0.00000E+00 0.00000E+00 1.00000E-03
 -1        13 0.00000E+00 0.00000E+00 0.00000E+00
 -1        14 0.00000E+00 0.00000E+00 0.00000E+00
 -1        15 0.00000E+00 0.00000E+00 2.00000E-03
 -1        16 0.00000E+00 0.00000E+00 2.00000E-03
 -1        17 0.00000E+00 0.00000E+00 0.00000E+00
 -1        18 0.00000E+00 0.00000E+00 1.00000E-03
 -1        19 0.00000E+00 0.00000E+00 2.00000E-03
 -1        20 0.00000E+00 0.00000E+00 1.00000E-03
 -3
    1PSTEP                        67          14           1          
  100CL  114 6264.615487          20                     0   14           1
 -4  STRESS      6    1
 -5  SXX         1    4    1    1
 -5  SYY         1    4    2    2
 -5  SZZ         1    4    3    3
 -5  SXY         1    4    1    2
 -5  SYZ         1    4    2    3
 -5  SZX         1    4    3    1
 -1         1 1.56652E+02 1.56652E+02 2.86673E+02 0.00000E+00 2.68209E-14 4.67487E-14
 -1         2 1.56652E+02 1.56652E+02 2.86673E+02 0.00000E+00-4.21830E-14-5.25754E-14
 -1         3 1.56652E+02 1.56652E+02 2.86673E+02 0.00000E+00-6.56071E-15-7.79183E-14
 -1         4 1.56652E+02 1.56652E+02 2.86673E+02 0.00000E+00-1.50091E-14 1.14510E-13
 -1         5 1.56652E+02 1.56652E+02 2.86673E+02 0.00000E+00 1.92542E-14-1.64629E-14
 -1         6 1.56652E+02 1.56652E+02 2.86673E+02 0.00000E+00-1.39035E-14 5.63539E-16
 -1         7 1.56652E+02 1.56652E+02 2.86673E+02 0.00000E+00 1.25624E-13 9.18691E-14
 -1         8 1.56652E+02 1.56652E+02 2.86673E+02 0.00000E+00-1.90809E-16-2.44779E-14
 -1         9 1.56666E+02 1.56666E+02 2.86698E+02 0.00000E+00-2.72272E-14-1.33012E-14
 -1        10 1.56666E+02 1.56666E+02 2.86698E+02 0.00000E+00 2.86320E-14 2.50461E-14
 -1        11 1.56666E+02 1.56666E+02 2.86698E+02 0.00000E+00 1.65521E-14 1.45475E-14
 -1        12 1.56666E+02 1.56666E+02 2.86698E+02 0.00000E+00 1.57380E-14 1.11682E-14
 -1        13 1.56666E+02 1.56666E+02 2.86698E+02 0.00000E+00-1.11890E-14-1.64736E-15
 -1        14 1.56666E+02 1.56666E+02 2.86698E+02 0.00000E+00 2.66657E-14 5.81300E-15
 -1        15 1.56666E+02 1.56666E+02 2.86698E+02 0.00000E+00-7.56469E-14 1.62057E-14
 -1        16 1.56666E+02 1.56666E+02 2.86698E+02 0.00000E+00 2.89408E-14 2.71749E-14
 -1        17 1.56666E+02 1.56666E+02 2.86698E+02 0.00000E+00-3.16429E-15 1.47909E-14
 -1        18 1.56666E+02 1.56666E+02 2.86698E+02 0.00000E+00 3.96248E-14-5.10456E-14
 -1        19 1.56666E+02 1.56666E+02 2.86698E+02 0.00000E+00 3.40072E-14-7.28872E-15
 -1        20 1.56666E+02 1.56666E+02 2.86698E+02 0.00000E+00 1.49824E-14 2.90582E-14
 -3
    1PSTEP                        68          14           1          
  100CL  114 6264.615487          20                     0   14           1
 -4  TOSTRAIN    6    1
 -5  EXX         1    4    1    1
 -5  EYY         1    4    2    2
 -5  EZZ         1    4    3    3
 -5  EXY         1    4    1    2
 -5  EYZ         1    4    2    3
 -5  EZX         1    4    3    1
 -1         1 0.00000E+00 0.00000E+00 1.99992E-03 0.00000E+00 4.12546E-19 7.19066E-19
 -1         2 0.00000E+00 0.00000E+00 1.99992E-03 0.00000E+00-6.48839E-19-8.08690E-19
 -1         3 0.00000E+00 0.00000E+00 1.99992E-03 0.00000E+00-1.00914E-19-1.19850E-18
 -1         4 0.00000E+00 0.00000E+00 1.99992E-03 0.00000E+00-2.30863E-19 1.76134E-18
 -1         5 0.00000E+00 0.00000E+00 1.99992E-03 0.00000E+00 2.96159E-19-2.53224E-19
 -1         6 0.00000E+00 0.00000E+00 1.99992E-03 0.00000E+00-2.13856E-19 8.66809E-21
 -1         7 0.00000E+00 0.00000E+00 1.99992E-03 0.00000E+00 1.93228E-18 1.41309E-18
 -1         8 0.00000E+00 0.00000E+00 1.99992E-03 0.00000E+00-2.93494E-21-3.76507E-19
 -1         9 0.00000E+00 0.00000E+00 2.00010E-03 0.00000E+00-4.18795E-19-2.04593E-19
 -1        10 0.00000E+00 0.00000E+00 2.00010E-03 0.00000E+00 4.40404E-19 3.85247E-19
 -1        11 0.00000E+00 0.00000E+00 2.00010E-03 0.00000E+00 2.54597E-19 2.23763E-19
 -1        12 0.00000E+00 0.00000E+00 2.00010E-03 0.00000E+00 2.42075E-19 1.71784E-19
 -1        13 0.00000E+00 0.00000E+00 2.00010E-03 0.00000E+00-1.72104E-19-2.53389E-20
 -1        14 0.00000E+00 0.00000E+00 2.00010E-03 0.00000E+00 4.10158E-19 8.94127E-20
 -1        15 0.00000E+00 0.00000E+00 2.00010E-03 0.00000E+00-1.16356E-18 2.49269E-19
 -1        16 0.00000E+00 0.00000E+00 2.00010E-03 0.00000E+00 4.45153E-19 4.17991E-19
 -1        17 0.00000E+00 0.00000E+00 2.00010E-03 0.00000E+00-4.86716E-20 2.27507E-19
 -1        18 0.00000E+00 0.00000E+00 2.00010E-03 0.00000E+00 6.09490E-19-7.85158E-19
 -1        19 0.00000E+00 0.00000E+00 2.00010E-03 0.00000E+00 5.23083E-19-1.12112E-19
 -1        20 0.00000E+00 0.00000E+00 2.00010E-03 0.00000E+00 2.30452E-19 4.46960E-19
 -3
    1PSTEP                        69          14           1          
  100CL  114 6264.615487          20                     0   14           1
 -4  FORC        4    1
 -5  F1          1    2    1    0
 -5  F2          1    2    2    0
 -5  F3          1    2    3    0
 -5  ALL         1    2    0    0    1ALL
 -1         1-1.30548E+01-1.30548E+01 2.38903E+01
 -1         2-1.30548E+01 1.30548E+01 2.38903E+01
 -1         3-1.30548E+01 1.30548E+01-2.38903E+01
 -1         4-1.30548E+01-1.30548E+01-2.38903E+01
 -1         5 1.30548E+01-1.30548E+01 2.38903E+01
 -1         6 1.30548E+01 1.30548E+01 2.38903E+01
 -1         7 1.30548E+01 1.30548E+01-2.38903E+01
 -1         8 1.30548E+01-1.30548E+01-2.38903E+01
 -1         9 5.22193E+01-5.90070E-15-9.55614E+01
 -1        10 5.22193E+01-5.22193E+01 5.32907E-15
 -1        11 5.22193E+01 4.70721E-15 9.55614E+01
 -1        12 5.22193E+01 5.22193E+01 2.48135E-14
 -1        13-8.69039E-15 5.22193E+01-9.55614E+01
 -1        14 7.75231E-15-5.22193E+01-9.55614E+01
 -1        15 2.41294E-16-5.22193E+01 9.55614E+01
 -1        16-8.85114E-15 5.22193E+01 9.55614E+01
 -1        17-5.22193E+01 1.42782E-15-9.55614E+01
 -1        18-5.22193E+01-5.22193E+01 3.55271E-15
 -1        19-5.22193E+01 3.90125E-15 9.55614E+01
 -1        20-5.22193E+01 5.22193E+01-1.55431E-15
 -3
    1PSTEP                        70          14           1          
  100CL  114 6264.615487          20                     0   14           1
 -4  ERROR       1    1
 -5  STR(%)      1    1    0    0
 -1         1 7.09938E-15
 -1         2 7.09938E-15
 -1         3 7.09938E-15
 -1         4 7.09938E-15
 -1         5 7.09938E-15
 -1         6 7.09938E-15
 -1         7 7.09938E-15
 -1         8 7.09938E-15
 -1         9 7.09938E-15
 -1        10 7.09938E-15
 -1        11 7.09938E-15
 -1        12 7.09938E-15
 -1        13 7.09938E-15
 -1        14 7.09938E-15
 -1        15 7.09938E-15
 -1        16 7.09938E-15
 -1        17 7.09938E-15
 -1        18 7.09938E-15
 -1        19 7.09938E-15
 -1        20 7.09938E-15
 -3
    1PSTEP                        71          15           1          
  100CL  115 7569.378505          20                     0   15           1
 -4  DISP        4    1
 -5  D1          1    2    1    0
 -5  D2          1    2    2    0
 -5  D3          1    2    3    0
 -5  ALL         1    2    0    0    1ALL
 -1         1 0.00000E+00 0.00000E+00 0.00000E+00
 -1         2 0.00000E+00 0.00000E+00 0.00000E+00
 -1         3 0.00000E+00 0.00000E+00 2.00000E-03
 -1         4 0.00000E+00 0.00000E+00 2.00000E-03
 -1         5 0.00000E+00 0.00000E+00 0.00000E+00
 -1         6 0.00000E+00 0.00000E+00 0.00000E+00
 -1         7 0.00000E+00 0.00000E+00 2.00000E-03
 -1         8 0.00000E+00 0.00000E+00 2.00000E-03
 -1         9 0.00000E+00 0.00000E+00 0.00000E+00
 -1        10 0.00000E+00 0.00000E+00 1.00000E-03
 -1        11 0.00000E+00 0.00000E+00 2.00000E-03
 -1        12 0.00000E+00 0.00000E+00 1.00000E-03
 -1        13 0.00000E+00 0.00000E+00 0.00000E+00
 -1        14 0.00000E+00 0.00000E+00 0.00000E+00
 -1        15 0.00000E+00 0.00000E+00 2.00000E-03
 -1        16 0.00000E+00 0.00000E+00 2.00000E-03
 -1        17 0.00000E+00 0.00000E+00 0.00000E+00
 -1        18 0.00000E+00 0.00000E+00 1.00000E-03
 -1        19 0.00000E+00 0.00000E+00 2.00000E-03
 -1        20 0.00000E+00 0.00000E+00 1.00000E-03
 -3
    1PSTEP                        72          15           1          
  100CL  115 7569.378505          20                     0   15           1
 -4  STRESS      6    1
 -5  SXX         1    4    1    1
 -5  SYY         1    4    2    2
 -5  SZZ         1    4    3    3
 -5  SXY         1    4    1    2
 -5  SYZ         1    4    2    3
 -5  SZX         1    4    3    1
 -1         1 1.56878E+02 1.56878E+02 2.86220E+02 0.00000E+00 2.66810E-14 4.65048E-14
 -1         2 1.56878E+02 1.56878E+02 2.86220E+02 0.00000E+00-4.19629E-14-5.23011E-14
 -1         3 1.56878E+02 1.56878E+02 2.86220E+02 0.00000E+00-6.52648E-15-7.75118E-14
 -1         4 1.56878E+02 1.56878E+02 2.86220E+02 0.00000E+00-1.49308E-14 1.13913E-13
 -1         5 1.56878E+02 1.56878E+02 2.86220E+02 0.00000E+00 1.91537E-14-1.63770E-14
 -1         6 1.56878E+02 1.56878E+02 2.86220E+02 0.00000E+00-1.38309E-14 5.60599E-16
 -1         7 1.56878E+02 1.56878E+02 2.86220E+02 0.00000E+00 1.24968E-13 9.13898E-14
 -1         8 1.56878E+02 1.56878E+02 2.86220E+02 0.00000E+00-1.89814E-16-2.43502E-14
 -1         9 1.56892E+02 1.56892E+02 2.86246E+02 0.00000E+00-2.70851E-14-1.32318E-14
 -1        10 1.56892E+02 1.56892E+02 2.86246E+02 0.00000E+00 2.84827E-14 2.49154E-14
 -1        11 1.56892E+02 1.56892E+02 2.86246E+02 0.00000E+00 1.64658E-14 1.44716E-14
 -1        12 1.56892E+02 1.56892E+02 2.86246E+02 0.00000E+00 1.56559E-14 1.11100E-14
 -1        13 1.56892E+02 1.56892E+02 2.86246E+02 0.00000E+00-1.11306E-14-1.63877E-15
 -1        14 1.56892E+02 1.56892E+02 2.86246E+02 0.00000E+00 2.65266E-14 5.78267E-15
 -1        15 1.56892E+02 1.56892E+02 2.86246E+02 0.00000E+00-7.52523E-14 1.61212E-14
 -1        16 1.56892E+02 1.56892E+02 2.86246E+02 0.00000E+00 2.87898E-14 2.70331E-14
 -1        17 1.56892E+02 1.56892E+02 2.86246E+02 0.00000E+00-3.14778E-15 1.47138E-14
 -1        18 1.56892E+02 1.56892E+02 2.86246E+02 0.00000E+00 3.94181E-14-5.07793E-14
 -1        19 1.56892E+02 1.56892E+02 2.86246E+02 0.00000E+00 3.38298E-14-7.25070E-15
 -1        20 1.56892E+02 1.56892E+02 2.86246E+02 0.00000E+00 1.49042E-14 2.89066E-14
 -3
    1PSTEP                        73          15           1          
  100CL  115 7569.378505          20                     0   15           1
 -4  TOSTRAIN    6    1
 -5  EXX         1    4    1    1
 -5  EYY         1    4    2    2
 -5  EZZ         1    4    3    3
 -5  EXY         1    4    1    2
 -5  EYZ         1    4    2    3
 -5  EZX         1    4    3    1
 -1         1 0.00000E+00 0.00000E+00 1.99992E-03 0.00000E+00 4.12546E-19 7.19066E-19
 -1         2 0.00000E+00 0.00000E+00 1.99992E-03 0.00000E+00-6.48839E-19-8.08690E-19
 -1         3 0.00000E+00 0.00000E+00 1.99992E-03 0.00000E+00-1.00914E-19-1.19850E-18
 -1         4 0.00000E+00 0.00000E+00 1.99992E-03 0.00000E+00-2.30863E-19 1.76134E-18
 -1         5 0.00000E+00 0.00000E+00 1.99992E-03 0.00000E+00 2.96159E-19-2.53224E-19
 -1         6 0.00000E+00 0.00000E+00 1.99992E-03 0.00000E+00-2.13856E-19 8.66809E-21
 -1         7 0.00000E+00 0.00000E+00 1.99992E-03 0.00000E+00 1.93228E-18 1.41309E-18
 -1         8 0.00000E+00 0.00000E+00 1.99992E-03 0.00000E+00-2.93494E-21-3.76507E-19
 -1         9 0.00000E+00 0.00000E+00 2.00010E-03 0.00000E+00-4.18795E-19-2.04593E-19
 -1        10 0.00000E+00 0.00000E+00 2.00010E-03 0.00000E+00 4.40404E-19 3.85247E-19
 -1        11 0.00000E+00 0.00000E+00 2.00010E-03 0.00000E+00 2.54597E-19 2.23763E-19
 -1        12 0.00000E+00 0.00000E+00 2.00010E-03 0.00000E+00 2.42075E-19 1.71784E-19
 -1        13 0.00000E+00 0.00000E+00 2.00010E-03 0.00000E+00-1.72104E-19-2.53389E-20
 -1        14 0.00000E+00 0.00000E+00 2.00010E-03 0.00000E+00 4.10158E-19 8.94127E-20
 -1        15 0.00000E+00 0.00000E+00 2.00010E-03 0.00000E+00-1.16356E-18 2.49269E-19
 -1        16 0.00000E+00 0.00000E+00 2.00010E-03 0.00000E+00 4.45153E-19 4.17991E-19
 -1        17 0.00000E+00 0.00000E+00 2.00010E-03 0.00000E+00-4.86716E-20 2.27507E-19
 -1        18 0.00000E+00 0.00000E+00 2.00010E-03 0.00000E+00 6.09490E-19-7.85158E-19
 -1        19 0.00000E+00 0.00000E+00 2.00010E-03 0.00000E+00 5.23083E-19-1.12112E-19
 -1        20 0.00000E+00 0.00000E+00 2.00010E-03 0.00000E+00 2.30452E-19 4.46960E-19
 -3
    1PSTEP                        74          15           1          
  100CL  115 7569.378505          20                     0   15           1
 -4  FORC        4    1
 -5  F1          1    2    1    0
 -5  F2          1    2    2    0
 -5  F3          1    2    3    0
 -5  ALL         1    2    0    0    1ALL
 -1         1-1.30737E+01-1.30737E+01 2.38527E+01
 -1         2-1.30737E+01 1.30737E+01 2.38527E+01
 -1         3-1.30737E+01 1.30737E+01-2.38527E+01
 -1         4-1.30737E+01-1.30737E+01-2.38527E+01
 -1         5 1.30737E+01-1.30737E+01 2.38527E+01
 -1         6 1.30737E+01 1.30737E+01 2.38527E+01
 -1         7 1.30737E+01 1.30737E+01-2.38527E+01
 -1         8 1.30737E+01-1.30737E+01-2.38527E+01
 -1         9 5.22947E+01-6.67762E-15-9.54106E+01
 -1        10 5.22947E+01-5.22947E+01 5.10703E-15
 -1        11 5.22947E+01 4.70698E-15 9.54106E+01
 -1        12 5.22947E+01 5.22947E+01 2.32314E-14
 -1        13-2.52533E-16 5.22947E+01-9.54106E+01
 -1        14 9.30788E-15-5.22947E+01-9.54106E+01
 -1        15-1.53632E-15-5.22947E+01 9.54106E+01
 -1        16-6.18676E-15 5.22947E+01 9.54106E+01
 -1        17-5.22947E+01-1.24672E-16-9.54106E+01
 -1        18-5.22947E+01-5.22947E+01 3.55271E-15
 -1        19-5.22947E+01 2.12307E-15 9.54106E+01
 -1        20-5.22947E+01 5.22947E+01 8.65974E-15
 -3
    1PSTEP                        75          15           1          
  100CL  115 7569.378505          20                     0   15           1
 -4  ERROR       1    1
 -5  STR(%)      1    1    0    0
 -1         1 7.11059E-15
 -1         2 7.11059E-15
 -1         3 7.11059E-15
 -1         4 7.11059E-15
 -1         5 7.11059E-15
 -1         6 7.11059E-15
 -1         7 7.11059E-15
 -1         8 7.11059E-15
 -1         9 7.11059E-15
 -1        10 7.11059E-15
 -1        11 7.11059E-15
 -1        12 7.11059E-15
 -1        13 7.11059E-15
 -1        14 7.11059E-15
 -1        15 7.11059E-15
 -1        16 7.11059E-15
 -1        17 7.11059E-15
 -1        18 7.11059E-15
 -1        19 7.11059E-15
 -1        20 7.11059E-15
 -3
    1PSTEP                        76          16           1          
  100CL  116 8874.141523          20                     0   16           1
 -4  DISP        4    1
 -5  D1          1    2    1    0
 -5  D2          1    2    2    0
 -5  D3          1    2    3    0
 -5  ALL         1    2    0    0    1ALL
 -1         1 0.00000E+00 0.00000E+00 0.00000E+00
 -1         2 0.00000E+00 0.00000E+00 0.00000E+00
 -1         3 0.00000E+00 0.00000E+00 2.00000E-03
 -1         4 0.00000E+00 0.00000E+00 2.00000E-03
 -1         5 0.00000E+00 0.00000E+00 0.00000E+00
 -1         6 0.00000E+00 0.00000E+00 0.00000E+00
 -1         7 0.00000E+00 0.00000E+00 2.00000E-03
 -1         8 0.00000E+00 0.00000E+00 2.00000E-03
 -1         9 0.00000E+00 0.00000E+00 0.00000E+00
 -1        10 0.00000E+00 0.00000E+00 1.00000E-03
 -1        11 0.00000E+00 0.00000E+00 2.00000E-03
 -1        12 0.00000E+00 0.00000E+00 1.00000E-03
 -1        13 0.00000E+00 0.00000E+00 0.00000E+00
 -1        14 0.00000E+00 0.00000E+00 0.00000E+00
 -1        15 0.00000E+00 0.00000E+00 2.00000E-03
 -1        16 0.00000E+00 0.00000E+00 2.00000E-03
 -1        17 0.00000E+00 0.00000E+00 0.00000E+00
 -1        18 0.00000E+00 0.00000E+00 1.00000E-03
 -1        19 0.00000E+00 0.00000E+00 2.00000E-03
 -1        20 0.00000E+00 0.00000E+00 1.00000E-03
 -3
    1PSTEP                        77          16           1          
  100CL  116 8874.141523          20                     0   16           1
 -4  STRESS      6    1
 -5  SXX         1    4    1    1
 -5  SYY         1    4    2    2
 -5  SZZ         1    4    3    3
 -5  SXY         1    4    1    2
 -5  SYZ         1    4    2    3
 -5  SZX         1    4    3    1
 -1         1 1.57103E+02 1.57103E+02 2.85771E+02 0.00000E+00 2.65418E-14 4.62622E-14
 -1         2 1.57103E+02 1.57103E+02 2.85771E+02 0.00000E+00-4.17440E-14-5.20283E-14
 -1         3 1.57103E+02 1.57103E+02 2.85771E+02 0.00000E+00-6.49243E-15-7.71074E-14
 -1         4 1.57103E+02 1.57103E+02 2.85771E+02 0.00000E+00-1.48529E-14 1.13318E-13
 -1         5 1.57103E+02 1.57103E+02 2.85771E+02 0.00000E+00 1.90538E-14-1.62916E-14
 -1         6 1.57103E+02 1.57103E+02 2.85771E+02 0.00000E+00-1.37588E-14 5.57675E-16
 -1         7 1.57103E+02 1.57103E+02 2.85771E+02 0.00000E+00 1.24316E-13 9.09130E-14
 -1         8 1.57103E+02 1.57103E+02 2.85771E+02 0.00000E+00-1.88823E-16-2.42231E-14
 -1         9 1.57117E+02 1.57117E+02 2.85796E+02 0.00000E+00-2.69438E-14-1.31628E-14
 -1        10 1.57117E+02 1.57117E+02 2.85796E+02 0.00000E+00 2.83341E-14 2.47854E-14
 -1        11 1.57117E+02 1.57117E+02 2.85796E+02 0.00000E+00 1.63799E-14 1.43962E-14
 -1        12 1.57117E+02 1.57117E+02 2.85796E+02 0.00000E+00 1.55742E-14 1.10520E-14
 -1        13 1.57117E+02 1.57117E+02 2.85796E+02 0.00000E+00-1.10726E-14-1.63022E-15
 -1        14 1.57117E+02 1.57117E+02 2.85796E+02 0.00000E+00 2.63882E-14 5.75250E-15
 -1        15 1.57117E+02 1.57117E+02 2.85796E+02 0.00000E+00-7.48597E-14 1.60371E-14
 -1        16 1.57117E+02 1.57117E+02 2.85796E+02 0.00000E+00 2.86396E-14 2.68921E-14
 -1        17 1.57117E+02 1.57117E+02 2.85796E+02 0.00000E+00-3.13136E-15 1.46370E-14
 -1        18 1.57117E+02 1.57117E+02 2.85796E+02 0.00000E+00 3.92125E-14-5.05143E-14
 -1        19 1.57117E+02 1.57117E+02 2.85796E+02 0.00000E+00 3.36533E-14-7.21287E-15
 -1        20 1.57117E+02 1.57117E+02 2.85796E+02 0.00000E+00 1.48264E-14 2.87558E-14
 -3
    1PSTEP                        78          16           1          
  100CL  116 8874.141523          20                     0   16           1
 -4  TOSTRAIN    6    1
 -5  EXX         1    4    1    1
 -5  EYY         1    4    2    2
 -5  EZZ         1    4    3    3
 -5  EXY         1    4    1    2
 -5  EYZ         1    4    2    3
 -5  EZX         1    4    3    1
 -1         1 0.00000E+00 0.00000E+00 1.99992E-03 0.00000E+00 4.12546E-19 7.19066E-19
 -1         2 0.00000E+00 0.00000E+00 1.99992E-03 0.00000E+00-6.48839E-19-8.08690E-19
 -1         3 0.00000E+00 0.00000E+00 1.99992E-03 0.00000E+00-1.00914E-19-1.19850E-18
 -1         4 0.00000E+00 0.00000E+00 1.99992E-03 0.00000E+00-2.30863E-19 1.76134E-18
 -1         5 0.00000E+00 0.00000E+00 1.99992E-03 0.00000E+00 2.96159E-19-2.53224E-19
 -1         6 0.00000E+00 0.00000E+00 1.99992E-03 0.00000E+00-2.13856E-19 8.66809E-21
 -1         7 0.00000E+00 0.00000E+00 1.99992E-03 0.00000E+00 1.93228E-18 1.41309E-18
 -1         8 0.00000E+00 0.00000E+00 1.99992E-03 0.00000E+00-2.93494E-21-3.76507E-19
 -1         9 0.00000E+00 0.00000E+00 2.00010E-03 0.00000E+00-4.18795E-19-2.04593E-19
 -1        10 0.00000E+00 0.00000E+00 2.00010E-03 0.00000E+00 4.40404E-19 3.85247E-19
 -1        11 0.00000E+00 0.00000E+00 2.00010E-03 0.00000E+00 2.54597E-19 2.23763E-19
 -1        12 0.00000E+00 0.00000E+00 2.00010E-03 0.00000E+00 2.42075E-19 1.71784E-19
 -1        13 0.00000E+00 0.00000E+00 2.00010E-03 0.00000E+00-1.72104E-19-2.53389E-20
 -1        14 0.00000E+00 0.00000E+00 2.00010E-03 0.00000E+00 4.10158E-19 8.94127E-20
 -1        15 0.00000E+00 0.00000E+00 2.00010E-03 0.00000E+00-1.16356E-18 2.49269E-19
 -1        16 0.00000E+00 0.00000E+00 2.00010E-03 0.00000E+00 4.45153E-19 4.17991E-19
 -1        17 0.00000E+00 0.00000E+00 2.00010E-03 0.00000E+00-4.86716E-20 2.27507E-19
 -1        18 0.00000E+00 0.00000E+00 2.00010E-03 0.00000E+00 6.09490E-19-7.85158E-19
 -1        19 0.00000E+00 0.00000E+00 2.00010E-03 0.00000E+00 5.23083E-19-1.12112E-19
 -1        20 0.00000E+00 0.00000E+00 2.00010E-03 0.00000E+00 2.30452E-19 4.46960E-19
 -3
    1PSTEP                        79          16           1          
  100CL  116 8874.141523          20                     0   16           1
 -4  FORC        4    1
 -5  F1          1    2    1    0
 -5  F2          1    2    2    0
 -5  F3          1    2    3    0
 -5  ALL         1    2    0    0    1ALL
 -1         1-1.30924E+01-1.30924E+01 2.38152E+01
 -1         2-1.30924E+01 1.30924E+01 2.38152E+01
 -1         3-1.30924E+01 1.30924E+01-2.38152E+01
 -1         4-1.30924E+01-1.30924E+01-2.38152E+01
 -1         5 1.30924E+01-1.30924E+01 2.38152E+01
 -1         6 1.30924E+01 1.30924E+01 2.38152E+01
 -1         7 1.30924E+01 1.30924E+01-2.38152E+01
 -1         8 1.30924E+01-1.30924E+01-2.38152E+01
 -1         9 5.23697E+01-6.56637E-15-9.52607E+01
 -1        10 5.23697E+01-5.23697E+01-7.54952E-15
 -1        11 5.23697E+01 1.82017E-15 9.52607E+01
 -1        12 5.23697E+01 5.23697E+01 1.56264E-14
 -1        13 2.96727E-15 5.23697E+01-9.52607E+01
 -1        14 1.70807E-14-5.23697E+01-9.52607E+01
 -1        15-3.31393E-15-5.23697E+01 9.52607E+01
 -1        16-5.07670E-15 5.23697E+01 9.52607E+01
 -1        17-5.23697E+01 5.43270E-16-9.52607E+01
 -1        18-5.23697E+01-5.23697E+01-5.32907E-15
 -1        19-5.23697E+01 3.89762E-15 9.52607E+01
 -1        20-5.23697E+01 5.23697E+01 5.55112E-15
 -3
    1PSTEP                        80          16           1          
  100CL  116 8874.141523          20                     0   16           1
 -4  ERROR       1    1
 -5  STR(%)      1    1    0    0
 -1         1 8.13919E-15
 -1         2 8.13919E-15
 -1         3 8.13919E-15
 -1         4 8.13919E-15
 -1         5 8.13919E-15
 -1         6 8.13919E-15
 -1         7 8.13919E-15
 -1         8 8.13919E-15
 -1         9 8.13919E-15
 -1        10 8.13919E-15
 -1        11 8.13919E-15
 -1        12 8.13919E-15
 -1        13 8.13919E-15
 -1        14 8.13919E-15
 -1        15 8.13919E-15
 -1        16 8.13919E-15
 -1        17 8.13919E-15
 -1        18 8.13919E-15
 -1        19 8.13919E-15
 -1        20 8.13919E-15
 -3
    1PSTEP                        81          17           1          
  100CL  117 10831.28605          20                     0   17           1
 -4  DISP        4    1
 -5  D1          1    2    1    0
 -5  D2          1    2    2    0
 -5  D3          1    2    3    0
 -5  ALL         1    2    0    0    1ALL
 -1         1 0.00000E+00 0.00000E+00 0.00000E+00
 -1         2 0.00000E+00 0.00000E+00 0.00000E+00
 -1         3 0.00000E+00 0.00000E+00 2.00000E-03
 -1         4 0.00000E+00 0.00000E+00 2.00000E-03
 -1         5 0.00000E+00 0.00000E+00 0.00000E+00
 -1         6 0.00000E+00 0.00000E+00 0.00000E+00
 -1         7 0.00000E+00 0.00000E+00 2.00000E-03
 -1         8 0.00000E+00 0.00000E+00 2.00000E-03
 -1         9 0.00000E+00 0.00000E+00 0.00000E+00
 -1        10 0.00000E+00 0.00000E+00 1.00000E-03
 -1        11 0.00000E+00 0.00000E+00 2.00000E-03
 -1        12 0.00000E+00 0.00000E+00 1.00000E-03
 -1        13 0.00000E+00 0.00000E+00 0.00000E+00
 -1        14 0.00000E+00 0.00000E+00 0.00000E+00
 -1        15 0.00000E+00 0.00000E+00 2.00000E-03
 -1        16 0.00000E+00 0.00000E+00 2.00000E-03
 -1        17 0.00000E+00 0.00000E+00 0.00000E+00
 -1        18 0.00000E+00 0.00000E+00 1.00000E-03
 -1        19 0.00000E+00 0.00000E+00 2.00000E-03
 -1        20 0.00000E+00 0.00000E+00 1.00000E-03
 -3
    1PSTEP                        82          17           1          
  100CL  117 10831.28605          20                     0   17           1
 -4  STRESS      6    1
 -5  SXX         1    4    1    1
 -5  SYY         1    4    2    2
 -5  SZZ         1    4    3    3
 -5  SXY         1    4    1    2
 -5  SYZ         1    4    2    3
 -5  SZX         1    4    3    1
 -1         1 1.57437E+02 1.57437E+02 2.85101E+02 0.00000E+00 2.63346E-14 4.59011E-14
 -1         2 1.57437E+02 1.57437E+02 2.85101E+02 0.00000E+00-4.14182E-14-5.16222E-14
 -1         3 1.57437E+02 1.57437E+02 2.85101E+02 0.00000E+00-6.44176E-15-7.65056E-14
 -1         4 1.57437E+02 1.57437E+02 2.85101E+02 0.00000E+00-1.47370E-14 1.12434E-13
 -1         5 1.57437E+02 1.57437E+02 2.85101E+02 0.00000E+00 1.89051E-14-1.61644E-14
 -1         6 1.57437E+02 1.57437E+02 2.85101E+02 0.00000E+00-1.36514E-14 5.53322E-16
 -1         7 1.57437E+02 1.57437E+02 2.85101E+02 0.00000E+00 1.23346E-13 9.02034E-14
 -1         8 1.57437E+02 1.57437E+02 2.85101E+02 0.00000E+00-1.87350E-16-2.40341E-14
 -1         9 1.57452E+02 1.57452E+02 2.85127E+02 0.00000E+00-2.67335E-14-1.30601E-14
 -1        10 1.57452E+02 1.57452E+02 2.85127E+02 0.00000E+00 2.81129E-14 2.45920E-14
 -1        11 1.57452E+02 1.57452E+02 2.85127E+02 0.00000E+00 1.62520E-14 1.42838E-14
 -1        12 1.57452E+02 1.57452E+02 2.85127E+02 0.00000E+00 1.54527E-14 1.09657E-14
 -1        13 1.57452E+02 1.57452E+02 2.85127E+02 0.00000E+00-1.09862E-14-1.61750E-15
 -1        14 1.57452E+02 1.57452E+02 2.85127E+02 0.00000E+00 2.61822E-14 5.70760E-15
 -1        15 1.57452E+02 1.57452E+02 2.85127E+02 0.00000E+00-7.42754E-14 1.59119E-14
 -1        16 1.57452E+02 1.57452E+02 2.85127E+02 0.00000E+00 2.84161E-14 2.66822E-14
 -1        17 1.57452E+02 1.57452E+02 2.85127E+02 0.00000E+00-3.10692E-15 1.45228E-14
 -1        18 1.57452E+02 1.57452E+02 2.85127E+02 0.00000E+00 3.89064E-14-5.01201E-14
 -1        19 1.57452E+02 1.57452E+02 2.85127E+02 0.00000E+00 3.33907E-14-7.15657E-15
 -1        20 1.57452E+02 1.57452E+02 2.85127E+02 0.00000E+00 1.47107E-14 2.85314E-14
 -3
    1PSTEP                        83          17           1          
  100CL  117 10831.28605          20                     0   17           1
 -4  TOSTRAIN    6    1
 -5  EXX         1    4    1    1
 -5  EYY         1    4    2    2
 -5  EZZ         1    4    3    3
 -5  EXY         1    4    1    2
 -5  EYZ         1    4    2    3
 -5  EZX         1    4    3    1
 -1         1 0.00000E+00 0.00000E+00 1.99992E-03 0.00000E+00 4.12546E-19 7.19066E-19
 -1         2 0.00000E+00 0.00000E+00 1.99992E-03 0.00000E+00-6.48839E-19-8.08690E-19
 -1         3 0.00000E+00 0.00000E+00 1.99992E-03 0.00000E+00-1.00914E-19-1.19850E-18
 -1         4 0.00000E+00 0.00000E+00 1.99992E-03 0.00000E+00-2.30863E-19 1.76134E-18
 -1         5 0.00000E+00 0.00000E+00 1.99992E-03 0.00000E+00 2.96159E-19-2.53224E-19
 -1         6 0.00000E+00 0.00000E+00 1.99992E-03 0.00000E+00-2.13856E-19 8.66809E-21
 -1         7 0.00000E+00 0.00000E+00 1.99992E-03 0.00000E+00 1.93228E-18 1.41309E-18
 -1         8 0.00000E+00 0.00000E+00 1.99992E-03 0.00000E+00-2.93494E-21-3.76507E-19
 -1         9 0.00000E+00 0.00000E+00 2.00010E-03 0.00000E+00-4.18795E-19-2.04593E-19
 -1        10 0.00000E+00 0.00000E+00 2.00010E-03 0.00000E+00 4.40404E-19 3.85247E-19
 -1        11 0.00000E+00 0.00000E+00 2.00010E-03 0.00000E+00 2.54597E-19 2.23763E-19
 -1        12 0.00000E+00 0.00000E+00 2.00010E-03 0.00000E+00 2.42075E-19 1.71784E-19
 -1        13 0.00000E+00 0.00000E+00 2.00010E-03 0.00000E+00-1.72104E-19-2.53389E-20
 -1        14 0.00000E+00 0.00000E+00 2.00010E-03 0.00000E+00 4.10158E-19 8.94127E-20
 -1        15 0.00000E+00 0.00000E+00 2.00010E-03 0.00000E+00-1.16356E-18 2.49269E-19
 -1        16 0.00000E+00 0.00000E+00 2.00010E-03 0.00000E+00 4.45153E-19 4.17991E-19
 -1        17 0.00000E+00 0.00000E+00 2.00010E-03 0.00000E+00-4.86716E-20 2.27507E-19
 -1        18 0.00000E+00 0.00000E+00 2.00010E-03 0.00000E+00 6.09490E-19-7.85158E-19
 -1        19 0.00000E+00 0.00000E+00 2.00010E-03 0.00000E+00 5.23083E-19-1.12112E-19
 -1        20 0.00000E+00 0.00000E+00 2.00010E-03 0.00000E+00 2.30452E-19 4.46960E-19
 -3
    1PSTEP                        84          17           1          
  100CL  117 10831.28605          20                     0   17           1
 -4  FORC        4    1
 -5  F1          1    2    1    0
 -5  F2          1    2    2    0
 -5  F3          1    2    3    0
 -5  ALL         1    2    0    0    1ALL
 -1         1-1.31203E+01-1.31203E+01 2.37594E+01
 -1         2-1.31203E+01 1.31203E+01 2.37594E+01
 -1         3-1.31203E+01 1.31203E+01-2.37594E+01
 -1         4-1.31203E+01-1.31203E+01-2.37594E+01
 -1         5 1.31203E+01-1.31203E+01 2.37594E+01
 -1         6 1.31203E+01 1.31203E+01 2.37594E+01
 -1         7 1.31203E+01 1.31203E+01-2.37594E+01
 -1         8 1.31203E+01-1.31203E+01-2.37594E+01
 -1         9 5.24813E+01-5.67785E-15-9.50375E+01
 -1        10 5.24813E+01-5.24813E+01-8.88178E-16
 -1        11 5.24813E+01 3.81823E-15 9.50375E+01
 -1        12 5.24813E+01 5.24813E+01 1.58484E-14
 -1        13-1.72318E-15 5.24813E+01-9.50375E+01
 -1        14 6.64646E-15-5.24813E+01-9.50375E+01
 -1        15-1.53944E-15-5.24813E+01 9.50375E+01
 -1        16-2.63444E-15 5.24813E+01 9.50375E+01
 -1        17-5.24813E+01-3.42216E-16-9.50375E+01
 -1        18-5.24813E+01-5.24813E+01-5.32907E-15
 -1        19-5.24813E+01 2.11857E-15 9.50375E+01
 -1        20-5.24813E+01 5.24813E+01 1.55431E-15
 -3
    1PSTEP                        85          17           1          
  100CL  117 10831.28605          20                     0   17           1
 -4  ERROR       1    1
 -5  STR(%)      1    1    0    0
 -1         1 8.15830E-15
 -1         2 8.15830E-15
 -1         3 8.15830E-15
 -1         4 8.15830E-15
 -1         5 8.15830E-15
 -1         6 8.15830E-15
 -1         7 8.15830E-15
 -1         8 8.15830E-15
 -1         9 8.15830E-15
 -1        10 8.15830E-15
 -1        11 8.15830E-15
 -1        12 8.15830E-15
 -1        13 8.15830E-15
 -1        14 8.15830E-15
 -1        15 8.15830E-15
 -1        16 8.15830E-15
 -1        17 8.15830E-15
 -1        18 8.15830E-15
 -1        19 8.15830E-15
 -1        20 8.15830E-15
 -3
    1PSTEP                        86          18           1          
  100CL  118 12251.62657          20                     0   18           1
 -4  DISP        4    1
 -5  D1          1    2    1    0
 -5  D2          1    2    2    0
 -5  D3          1    2    3    0
 -5  ALL         1    2    0    0    1ALL
 -1         1 0.00000E+00 0.00000E+00 0.00000E+00
 -1         2 0.00000E+00 0.00000E+00 0.00000E+00
 -1         3 0.00000E+00 0.00000E+00 2.00000E-03
 -1         4 0.00000E+00 0.00000E+00 2.00000E-03
 -1         5 0.00000E+00 0.00000E+00 0.00000E+00
 -1         6 0.00000E+00 0.00000E+00 0.00000E+00
 -1         7 0.00000E+00 0.00000E+00 2.00000E-03
 -1         8 0.00000E+00 0.00000E+00 2.00000E-03
 -1         9 0.00000E+00 0.00000E+00 0.00000E+00
 -1        10 0.00000E+00 0.00000E+00 1.00000E-03
 -1        11 0.00000E+00 0.00000E+00 2.00000E-03
 -1        12 0.00000E+00 0.00000E+00 1.00000E-03
 -1        13 0.00000E+00 0.00000E+00 0.00000E+00
 -1        14 0.00000E+00 0.00000E+00 0.00000E+00
 -1        15 0.00000E+00 0.00000E+00 2.00000E-03
 -1        16 0.00000E+00 0.00000E+00 2.00000E-03
 -1        17 0.00000E+00 0.00000E+00 0.00000E+00
 -1        18 0.00000E+00 0.00000E+00 1.00000E-03
 -1        19 0.00000E+00 0.00000E+00 2.00000E-03
 -1        20 0.00000E+00 0.00000E+00 1.00000E-03
 -3
    1PSTEP                        87          18           1          
  100CL  118 12251.62657          20                     0   18           1
 -4  STRESS      6    1
 -5  SXX         1    4    1    1
 -5  SYY         1    4    2    2
 -5  SZZ         1    4    3    3
 -5  SXY         1    4    1    2
 -5  SYZ         1    4    2    3
 -5  SZX         1    4    3    1
 -1         1 1.57679E+02 1.57679E+02 2.84618E+02 0.00000E+00 2.61851E-14 4.56405E-14
 -1         2 1.57679E+02 1.57679E+02 2.84618E+02 0.00000E+00-4.11831E-14-5.13291E-14
 -1         3 1.57679E+02 1.57679E+02 2.84618E+02 0.00000E+00-6.40519E-15-7.60713E-14
 -1         4 1.57679E+02 1.57679E+02 2.84618E+02 0.00000E+00-1.46533E-14 1.11796E-13
 -1         5 1.57679E+02 1.57679E+02 2.84618E+02 0.00000E+00 1.87978E-14-1.60726E-14
 -1         6 1.57679E+02 1.57679E+02 2.84618E+02 0.00000E+00-1.35739E-14 5.50181E-16
 -1         7 1.57679E+02 1.57679E+02 2.84618E+02 0.00000E+00 1.22646E-13 8.96914E-14
 -1         8 1.57679E+02 1.57679E+02 2.84618E+02 0.00000E+00-1.86286E-16-2.38976E-14
 -1         9 1.57693E+02 1.57693E+02 2.84644E+02 0.00000E+00-2.65818E-14-1.29859E-14
 -1        10 1.57693E+02 1.57693E+02 2.84644E+02 0.00000E+00 2.79533E-14 2.44524E-14
 -1        11 1.57693E+02 1.57693E+02 2.84644E+02 0.00000E+00 1.61598E-14 1.42027E-14
 -1        12 1.57693E+02 1.57693E+02 2.84644E+02 0.00000E+00 1.53650E-14 1.09035E-14
 -1        13 1.57693E+02 1.57693E+02 2.84644E+02 0.00000E+00-1.09238E-14-1.60831E-15
 -1        14 1.57693E+02 1.57693E+02 2.84644E+02 0.00000E+00 2.60336E-14 5.67520E-15
 -1        15 1.57693E+02 1.57693E+02 2.84644E+02 0.00000E+00-7.38538E-14 1.58216E-14
 -1        16 1.57693E+02 1.57693E+02 2.84644E+02 0.00000E+00 2.82547E-14 2.65307E-14
 -1        17 1.57693E+02 1.57693E+02 2.84644E+02 0.00000E+00-3.08928E-15 1.44403E-14
 -1        18 1.57693E+02 1.57693E+02 2.84644E+02 0.00000E+00 3.86856E-14-4.98356E-14
 -1        19 1.57693E+02 1.57693E+02 2.84644E+02 0.00000E+00 3.32011E-14-7.11595E-15
 -1        20 1.57693E+02 1.57693E+02 2.84644E+02 0.00000E+00 1.46272E-14 2.83694E-14
 -3
    1PSTEP                        88          18           1          
  100CL  118 12251.62657          20                     0   18           1
 -4  TOSTRAIN    6    1
 -5  EXX         1    4    1    1
 -5  EYY         1    4    2    2
 -5  EZZ         1    4    3    3
 -5  EXY         1    4    1    2
 -5  EYZ         1    4    2    3
 -5  EZX         1    4    3    1
 -1         1 0.00000E+00 0.00000E+00 1.99992E-03 0.00000E+00 4.12546E-19 7.19066E-19
 -1         2 0.00000E+00 0.00000E+00 1.99992E-03 0.00000E+00-6.48839E-19-8.08690E-19
 -1         3 0.00000E+00 0.00000E+00 1.99992E-03 0.00000E+00-1.00914E-19-1.19850E-18
 -1         4 0.00000E+00 0.00000E+00 1.99992E-03 0.00000E+00-2.30863E-19 1.76134E-18
 -1         5 0.00000E+00 0.00000E+00 1.99992E-03 0.00000E+00 2.96159E-19-2.53224E-19
 -1         6 0.00000E+00 0.00000E+00 1.99992E-03 0.00000E+00-2.13856E-19 8.66809E-21
 -1         7 0.00000E+00 0.00000E+00 1.99992E-03 0.00000E+00 1.93228E-18 1.41309E-18
 -1         8 0.00000E+00 0.00000E+00 1.99992E-03 0.00000E+00-2.93494E-21-3.76507E-19
 -1         9 0.00000E+00 0.00000E+00 2.00010E-03 0.00000E+00-4.18795E-19-2.04593E-19
 -1        10 0.00000E+00 0.00000E+00 2.00010E-03 0.00000E+00 4.40404E-19 3.85247E-19
 -1        11 0.00000E+00 0.00000E+00 2.00010E-03 0.00000E+00 2.54597E-19 2.23763E-19
 -1        12 0.00000E+00 0.00000E+00 2.00010E-03 0.00000E+00 2.42075E-19 1.71784E-19
 -1        13 0.00000E+00 0.00000E+00 2.00010E-03 0.00000E+00-1.72104E-19-2.53389E-20
 -1        14 0.00000E+00 0.00000E+00 2.00010E-03 0.00000E+00 4.10158E-19 8.94127E-20
 -1        15 0.00000E+00 0.00000E+00 2.00010E-03 0.00000E+00-1.16356E-18 2.49269E-19
 -1        16 0.00000E+00 0.00000E+00 2.00010E-03 0.00000E+00 4.45153E-19 4.17991E-19
 -1        17 0.00000E+00 0.00000E+00 2.00010E-03 0.00000E+00-4.86716E-20 2.27507E-19
 -1        18 0.00000E+00 0.00000E+00 2.00010E-03 0.00000E+00 6.09490E-19-7.85158E-19
 -1        19 0.00000E+00 0.00000E+00 2.00010E-03 0.00000E+00 5.23083E-19-1.12112E-19
 -1        20 0.00000E+00 0.00000E+00 2.00010E-03 0.00000E+00 2.30452E-19 4.46960E-19
 -3
    1PSTEP                        89          18           1          
  100CL  118 12251.62657          20                     0   18           1
 -4  FORC        4    1
 -5  F1          1    2    1    0
 -5  F2          1    2    2    0
 -5  F3          1    2    3    0
 -5  ALL         1    2    0    0    1ALL
 -1         1-1.31404E+01-1.31404E+01 2.37191E+01
 -1         2-1.31404E+01 1.31404E+01 2.37191E+01
 -1         3-1.31404E+01 1.31404E+01-2.37191E+01
 -1         4-1.31404E+01-1.31404E+01-2.37191E+01
 -1         5 1.31404E+01-1.31404E+01 2.37191E+01
 -1         6 1.31404E+01 1.31404E+01 2.37191E+01
 -1         7 1.31404E+01 1.31404E+01-2.37191E+01
 -1         8 1.31404E+01-1.31404E+01-2.37191E+01
 -1         9 5.25618E+01-7.03763E-15-9.48764E+01
 -1        10 5.25618E+01-5.25618E+01 3.33067E-15
 -1        11 5.25618E+01 5.37229E-15 9.48764E+01
 -1        12 5.25618E+01 5.25618E+01 2.71727E-14
 -1        13-7.94026E-15 5.25618E+01-9.48764E+01
 -1        14 1.97484E-14-5.25618E+01-9.48764E+01
 -1        15-8.64621E-15-5.25618E+01 9.48764E+01
 -1        16-8.40777E-15 5.25618E+01 9.48764E+01
 -1        17-5.25618E+01-1.22845E-15-9.48764E+01
 -1        18-5.25618E+01-5.25618E+01 3.55271E-15
 -1        19-5.25618E+01 3.89299E-15 9.48764E+01
 -1        20-5.25618E+01 5.25618E+01 5.99520E-15
 -3
    1PSTEP                        90          18           1          
  100CL  118 12251.62657          20                     0   18           1
 -4  ERROR       1    1
 -5  STR(%)      1    1    0    0
 -1         1 1.02152E-14
 -1         2 1.02152E-14
 -1         3 1.02152E-14
 -1         4 1.02152E-14
 -1         5 1.02152E-14
 -1         6 1.02152E-14
 -1         7 1.02152E-14
 -1         8 1.02152E-14
 -1         9 1.02152E-14
 -1        10 1.02152E-14
 -1        11 1.02152E-14
 -1        12 1.02152E-14
 -1        13 1.02152E-14
 -1        14 1.02152E-14
 -1        15 1.02152E-14
 -1        16 1.02152E-14
 -1        17 1.02152E-14
 -1        18 1.02152E-14
 -1        19 1.02152E-14
 -1        20 1.02152E-14
 -3
    1PSTEP                        91          19           1          
  100CL  119 13671.96708          20                     0   19           1
 -4  DISP        4    1
 -5  D1          1    2    1    0
 -5  D2          1    2    2    0
 -5  D3          1    2    3    0
 -5  ALL         1    2    0    0    1ALL
 -1         1 0.00000E+00 0.00000E+00 0.00000E+00
 -1         2 0.00000E+00 0.00000E+00 0.00000E+00
 -1         3 0.00000E+00 0.00000E+00 2.00000E-03
 -1         4 0.00000E+00 0.00000E+00 2.00000E-03
 -1         5 0.00000E+00 0.00000E+00 0.00000E+00
 -1         6 0.00000E+00 0.00000E+00 0.00000E+00
 -1         7 0.00000E+00 0.00000E+00 2.00000E-03
 -1         8 0.00000E+00 0.00000E+00 2.00000E-03
 -1         9 0.00000E+00 0.00000E+00 0.00000E+00
 -1        10 0.00000E+00 0.00000E+00 1.00000E-03
 -1        11 0.00000E+00 0.00000E+00 2.00000E-03
 -1        12 0.00000E+00 0.00000E+00 1.00000E-03
 -1        13 0.00000E+00 0.00000E+00 0.00000E+00
 -1        14 0.00000E+00 0.00000E+00 0.00000E+00
 -1        15 0.00000E+00 0.00000E+00 2.00000E-03
 -1        16 0.00000E+00 0.00000E+00 2.00000E-03
 -1        17 0.00000E+00 0.00000E+00 0.00000E+00
 -1        18 0.00000E+00 0.00000E+00 1.00000E-03
 -1        19 0.00000E+00 0.00000E+00 2.00000E-03
 -1        20 0.00000E+00 0.00000E+00 1.00000E-03
 -3
    1PSTEP                        92          19           1          
  100CL  119 13671.96708          20                     0   19           1
 -4  STRESS      6    1
 -5  SXX         1    4    1    1
 -5  SYY         1    4    2    2
 -5  SZZ         1    4    3    3
 -5  SXY         1    4    1    2
 -5  SYZ         1    4    2    3
 -5  SZX         1    4    3    1
 -1         1 1.57919E+02 1.57919E+02 2.84138E+02 0.00000E+00 2.60365E-14 4.53815E-14
 -1         2 1.57919E+02 1.57919E+02 2.84138E+02 0.00000E+00-4.09493E-14-5.10378E-14
 -1         3 1.57919E+02 1.57919E+02 2.84138E+02 0.00000E+00-6.36883E-15-7.56395E-14
 -1         4 1.57919E+02 1.57919E+02 2.84138E+02 0.00000E+00-1.45701E-14 1.11161E-13
 -1         5 1.57919E+02 1.57919E+02 2.84138E+02 0.00000E+00 1.86911E-14-1.59814E-14
 -1         6 1.57919E+02 1.57919E+02 2.84138E+02 0.00000E+00-1.34968E-14 5.47058E-16
 -1         7 1.57919E+02 1.57919E+02 2.84138E+02 0.00000E+00 1.21950E-13 8.91822E-14
 -1         8 1.57919E+02 1.57919E+02 2.84138E+02 0.00000E+00-1.85229E-16-2.37620E-14
 -1         9 1.57933E+02 1.57933E+02 2.84163E+02 0.00000E+00-2.64309E-14-1.29122E-14
 -1        10 1.57933E+02 1.57933E+02 2.84163E+02 0.00000E+00 2.77947E-14 2.43136E-14
 -1        11 1.57933E+02 1.57933E+02 2.84163E+02 0.00000E+00 1.60680E-14 1.41221E-14
 -1        12 1.57933E+02 1.57933E+02 2.84163E+02 0.00000E+00 1.52777E-14 1.08416E-14
 -1        13 1.57933E+02 1.57933E+02 2.84163E+02 0.00000E+00-1.08618E-14-1.59918E-15
 -1        14 1.57933E+02 1.57933E+02 2.84163E+02 0.00000E+00 2.58858E-14 5.64299E-15
 -1        15 1.57933E+02 1.57933E+02 2.84163E+02 0.00000E+00-7.34346E-14 1.57318E-14
 -1        16 1.57933E+02 1.57933E+02 2.84163E+02 0.00000E+00 2.80944E-14 2.63801E-14
 -1        17 1.57933E+02 1.57933E+02 2.84163E+02 0.00000E+00-3.07175E-15 1.43584E-14
 -1        18 1.57933E+02 1.57933E+02 2.84163E+02 0.00000E+00 3.84660E-14-4.95527E-14
 -1        19 1.57933E+02 1.57933E+02 2.84163E+02 0.00000E+00 3.30127E-14-7.07556E-15
 -1        20 1.57933E+02 1.57933E+02 2.84163E+02 0.00000E+00 1.45442E-14 2.82084E-14
 -3
    1PSTEP                        93          19           1          
  100CL  119 13671.96708          20                     0   19           1
 -4  TOSTRAIN    6    1
 -5  EXX         1    4    1    1
 -5  EYY         1    4    2    2
 -5  EZZ         1    4    3    3
 -5  EXY         1    4    1    2
 -5  EYZ         1    4    2    3
 -5  EZX         1    4    3    1
 -1         1 0.00000E+00 0.00000E+00 1.99992E-03 0.00000E+00 4.12546E-19 7.19066E-19
 -1         2 0.00000E+00 0.00000E+00 1.99992E-03 0.00000E+00-6.48839E-19-8.08690E-19
 -1         3 0.00000E+00 0.00000E+00 1.99992E-03 0.00000E+00-1.00914E-19-1.19850E-18
 -1         4 0.00000E+00 0.00000E+00 1.99992E-03 0.00000E+00-2.30863E-19 1.76134E-18
 -1         5 0.00000E+00 0.00000E+00 1.99992E-03 0.00000E+00 2.96159E-19-2.53224E-19
 -1         6 0.00000E+00 0.00000E+00 1.99992E-03 0.00000E+00-2.13856E-19 8.66809E-21
 -1         7 0.00000E+00 0.00000E+00 1.99992E-03 0.00000E+00 1.93228E-18 1.41309E-18
 -1         8 0.00000E+00 0.00000E+00 1.99992E-03 0.00000E+00-2.93494E-21-3.76507E-19
 -1         9 0.00000E+00 0.00000E+00 2.00010E-03 0.00000E+00-4.18795E-19-2.04593E-19
 -1        10 0.00000E+00 0.00000E+00 2.00010E-03 0.00000E+00 4.40404E-19 3.85247E-19
 -1        11 0.00000E+00 0.00000E+00 2.00010E-03 0.00000E+00 2.54597E-19 2.23763E-19
 -1        12 0.00000E+00 0.00000E+00 2.00010E-03 0.00000E+00 2.42075E-19 1.71784E-19
 -1        13 0.00000E+00 0.00000E+00 2.00010E-03 0.00000E+00-1.72104E-19-2.53389E-20
 -1        14 0.00000E+00 0.00000E+00 2.00010E-03 0.00000E+00 4.10158E-19 8.94127E-20
 -1        15 0.00000E+00 0.00000E+00 2.00010E-03 0.00000E+00-1.16356E-18 2.49269E-19
 -1        16 0.00000E+00 0.00000E+00 2.00010E-03 0.00000E+00 4.45153E-19 4.17991E-19
 -1        17 0.00000E+00 0.00000E+00 2.00010E-03 0.00000E+00-4.86716E-20 2.27507E-19
 -1        18 0.00000E+00 0.00000E+00 2.00010E-03 0.00000E+00 6.09490E-19-7.85158E-19
 -1        19 0.00000E+00 0.00000E+00 2.00010E-03 0.00000E+00 5.23083E-19-1.12112E-19
 -1        20 0.00000E+00 0.00000E+00 2.00010E-03 0.00000E+00 2.30452E-19 4.46960E-19
 -3
    1PSTEP                        94          19           1          
  100CL  119 13671.96708          20                     0   19           1
 -4  FORC        4    1
 -5  F1          1    2    1    0
 -5  F2          1    2    2    0
 -5  F3          1    2    3    0
 -5  ALL         1    2    0    0    1ALL
 -1         1-1.31605E+01-1.31605E+01 2.36791E+01
 -1         2-1.31605E+01 1.31605E+01 2.36791E+01
 -1         3-1.31605E+01 1.31605E+01-2.36791E+01
 -1         4-1.31605E+01-1.31605E+01-2.36791E+01
 -1         5 1.31605E+01-1.31605E+01 2.36791E+01
 -1         6 1.31605E+01 1.31605E+01 2.36791E+01
 -1         7 1.31605E+01 1.31605E+01-2.36791E+01
 -1         8 1.31605E+01-1.31605E+01-2.36791E+01
 -1         9 5.26418E+01-7.81454E-15-9.47163E+01
 -1        10 5.26418E+01-5.26418E+01-7.54952E-15
 -1        11 5.26418E+01 4.48387E-15 9.47163E+01
 -1        12 5.26418E+01 5.26418E+01 1.85407E-14
 -1        13-1.02895E-15 5.26418E+01-9.47163E+01
 -1        14 9.97982E-15-5.26418E+01-9.47163E+01
 -1        15-8.64755E-15-5.26418E+01 9.47163E+01
 -1        16-1.30252E-15 5.26418E+01 9.47163E+01
 -1        17-5.26418E+01 1.43802E-15-9.47163E+01
 -1        18-5.26418E+01-5.26418E+01-7.10543E-15
 -1        19-5.26418E+01 5.66741E-15 9.47163E+01
 -1        20-5.26418E+01 5.26418E+01 3.77476E-15
 -3
    1PSTEP                        95          19           1          
  100CL  119 13671.96708          20                     0   19           1
 -4  ERROR       1    1
 -5  STR(%)      1    1    0    0
 -1         1 6.13947E-15
 -1         2 6.13947E-15
 -1         3 6.13947E-15
 -1         4 6.13947E-15
 -1         5 6.13947E-15
 -1         6 6.13947E-15
 -1         7 6.13947E-15
 -1         8 6.13947E-15
 -1         9 6.13947E-15
 -1        10 6.13947E-15
 -1        11 6.13947E-15
 -1        12 6.13947E-15
 -1        13 6.13947E-15
 -1        14 6.13947E-15
 -1        15 6.13947E-15
 -1        16 6.13947E-15
 -1        17 6.13947E-15
 -1        18 6.13947E-15
 -1        19 6.13947E-15
 -1        20 6.13947E-15
 -3
    1PSTEP                        96          20           1          
  100CL  120 15802.47785          20                     0   20           1
 -4  DISP        4    1
 -5  D1          1    2    1    0
 -5  D2          1    2    2    0
 -5  D3          1    2    3    0
 -5  ALL         1    2    0    0    1ALL
 -1         1 0.00000E+00 0.00000E+00 0.00000E+00
 -1         2 0.00000E+00 0.00000E+00 0.00000E+00
 -1         3 0.00000E+00 0.00000E+00 2.00000E-03
 -1         4 0.00000E+00 0.00000E+00 2.00000E-03
 -1         5 0.00000E+00 0.00000E+00 0.00000E+00
 -1         6 0.00000E+00 0.00000E+00 0.00000E+00
 -1         7 0.00000E+00 0.00000E+00 2.00000E-03
 -1         8 0.00000E+00 0.00000E+00 2.00000E-03
 -1         9 0.00000E+00 0.00000E+00 0.00000E+00
 -1        10 0.00000E+00 0.00000E+00 1.00000E-03
 -1        11 0.00000E+00 0.00000E+00 2.00000E-03
 -1        12 0.00000E+00 0.00000E+00 1.00000E-03
 -1        13 0.00000E+00 0.00000E+00 0.00000E+00
 -1        14 0.00000E+00 0.00000E+00 0.00000E+00
 -1        15 0.00000E+00 0.00000E+00 2.00000E-03
 -1        16 0.00000E+00 0.00000E+00 2.00000E-03
 -1        17 0.00000E+00 0.00000E+00 0.00000E+00
 -1        18 0.00000E+00 0.00000E+00 1.00000E-03
 -1        19 0.00000E+00 0.00000E+00 2.00000E-03
 -1        20 0.00000E+00 0.00000E+00 1.00000E-03
 -3
    1PSTEP                        97          20           1          
  100CL  120 15802.47785          20                     0   20           1
 -4  STRESS      6    1
 -5  SXX         1    4    1    1
 -5  SYY         1    4    2    2
 -5  SZZ         1    4    3    3
 -5  SXY         1    4    1    2
 -5  SYZ         1    4    2    3
 -5  SZX         1    4    3    1
 -1         1 1.58276E+02 1.58276E+02 2.83423E+02 0.00000E+00 2.58154E-14 4.49961E-14
 -1         2 1.58276E+02 1.58276E+02 2.83423E+02 0.00000E+00-4.06016E-14-5.06044E-14
 -1         3 1.58276E+02 1.58276E+02 2.83423E+02 0.00000E+00-6.31476E-15-7.49973E-14
 -1         4 1.58276E+02 1.58276E+02 2.83423E+02 0.00000E+00-1.44464E-14 1.10217E-13
 -1         5 1.58276E+02 1.58276E+02 2.83423E+02 0.00000E+00 1.85324E-14-1.58457E-14
 -1         6 1.58276E+02 1.58276E+02 2.83423E+02 0.00000E+00-1.33822E-14 5.42413E-16
 -1         7 1.58276E+02 1.58276E+02 2.83423E+02 0.00000E+00 1.20914E-13 8.84250E-14
 -1         8 1.58276E+02 1.58276E+02 2.83423E+02 0.00000E+00-1.83656E-16-2.35602E-14
 -1         9 1.58291E+02 1.58291E+02 2.83449E+02 0.00000E+00-2.62065E-14-1.28026E-14
 -1        10 1.58291E+02 1.58291E+02 2.83449E+02 0.00000E+00 2.75587E-14 2.41071E-14
 -1        11 1.58291E+02 1.58291E+02 2.83449E+02 0.00000E+00 1.59316E-14 1.40022E-14
 -1        12 1.58291E+02 1.58291E+02 2.83449E+02 0.00000E+00 1.51480E-14 1.07496E-14
 -1        13 1.58291E+02 1.58291E+02 2.83449E+02 0.00000E+00-1.07696E-14-1.58561E-15
 -1        14 1.58291E+02 1.58291E+02 2.83449E+02 0.00000E+00 2.56660E-14 5.59507E-15
 -1        15 1.58291E+02 1.58291E+02 2.83449E+02 0.00000E+00-7.28110E-14 1.55982E-14
 -1        16 1.58291E+02 1.58291E+02 2.83449E+02 0.00000E+00 2.78558E-14 2.61561E-14
 -1        17 1.58291E+02 1.58291E+02 2.83449E+02 0.00000E+00-3.04567E-15 1.42364E-14
 -1        18 1.58291E+02 1.58291E+02 2.83449E+02 0.00000E+00 3.81394E-14-4.91319E-14
 -1        19 1.58291E+02 1.58291E+02 2.83449E+02 0.00000E+00 3.27324E-14-7.01548E-15
 -1        20 1.58291E+02 1.58291E+02 2.83449E+02 0.00000E+00 1.44207E-14 2.79689E-14
 -3
    1PSTEP                        98          20           1          
  100CL  120 15802.47785          20                     0   20           1
 -4  TOSTRAIN    6    1
 -5  EXX         1    4    1    1
 -5  EYY         1    4    2    2
 -5  EZZ         1    4    3    3
 -5  EXY         1    4    1    2
 -5  EYZ         1    4    2    3
 -5  EZX         1    4    3    1
 -1         1 0.00000E+00 0.00000E+00 1.99992E-03 0.00000E+00 4.12546E-19 7.19066E-19
 -1         2 0.00000E+00 0.00000E+00 1.99992E-03 0.00000E+00-6.48839E-19-8.08690E-19
 -1         3 0.00000E+00 0.00000E+00 1.99992E-03 0.00000E+00-1.00914E-19-1.19850E-18
 -1         4 0.00000E+00 0.00000E+00 1.99992E-03 0.00000E+00-2.30863E-19 1.76134E-18
 -1         5 0.00000E+00 0.00000E+00 1.99992E-03 0.00000E+00 2.96159E-19-2.53224E-19
 -1         6 0.00000E+00 0.00000E+00 1.99992E-03 0.00000E+00-2.13856E-19 8.66809E-21
 -1         7 0.00000E+00 0.00000E+00 1.99992E-03 0.00000E+00 1.93228E-18 1.41309E-18
 -1         8 0.00000E+00 0.00000E+00 1.99992E-03 0.00000E+00-2.93494E-21-3.76507E-19
 -1         9 0.00000E+00 0.00000E+00 2.00010E-03 0.00000E+00-4.18795E-19-2.04593E-19
 -1        10 0.00000E+00 0.00000E+00 2.00010E-03 0.00000E+00 4.40404E-19 3.85247E-19
 -1        11 0.00000E+00 0.00000E+00 2.00010E-03 0.00000E+00 2.54597E-19 2.23763E-19
 -1        12 0.00000E+00 0.00000E+00 2.00010E-03 0.00000E+00 2.42075E-19 1.71784E-19
 -1        13 0.00000E+00 0.00000E+00 2.00010E-03 0.00000E+00-1.72104E-19-2.53389E-20
 -1        14 0.00000E+00 0.00000E+00 2.00010E-03 0.00000E+00 4.10158E-19 8.94127E-20
 -1        15 0.00000E+00 0.00000E+00 2.00010E-03 0.00000E+00-1.16356E-18 2.49269E-19
 -1        16 0.00000E+00 0.00000E+00 2.00010E-03 0.00000E+00 4.45153E-19 4.17991E-19
 -1        17 0.00000E+00 0.00000E+00 2.00010E-03 0.00000E+00-4.86716E-20 2.27507E-19
 -1        18 0.00000E+00 0.00000E+00 2.00010E-03 0.00000E+00 6.09490E-19-7.85158E-19
 -1        19 0.00000E+00 0.00000E+00 2.00010E-03 0.00000E+00 5.23083E-19-1.12112E-19
 -1        20 0.00000E+00 0.00000E+00 2.00010E-03 0.00000E+00 2.30452E-19 4.46960E-19
 -3
    1PSTEP                        99          20           1          
  100CL  120 15802.47785          20                     0   20           1
 -4  FORC        4    1
 -5  F1          1    2    1    0
 -5  F2          1    2    2    0
 -5  F3          1    2    3    0
 -5  ALL         1    2    0    0    1ALL
 -1         1-1.31902E+01-1.31902E+01 2.36195E+01
 -1         2-1.31902E+01 1.31902E+01 2.36195E+01
 -1         3-1.31902E+01 1.31902E+01-2.36195E+01
 -1         4-1.31902E+01-1.31902E+01-2.36195E+01
 -1         5 1.31902E+01-1.31902E+01 2.36195E+01
 -1         6 1.31902E+01 1.31902E+01 2.36195E+01
 -1         7 1.31902E+01 1.31902E+01-2.36195E+01
 -1         8 1.31902E+01-1.31902E+01-2.36195E+01
 -1         9 5.27609E+01-4.81657E-15-9.44781E+01
 -1        10 5.27609E+01-5.27609E+01 1.11022E-15
 -1        11 5.27609E+01 4.70555E-15 9.44781E+01
 -1        12 5.27609E+01 5.27609E+01 2.14828E-14
 -1        13-1.30626E-15 5.27609E+01-9.44781E+01
 -1        14 3.54251E-15-5.27609E+01-9.44781E+01
 -1        15 2.00860E-15-5.27609E+01 9.44781E+01
 -1        16-7.52002E-15 5.27609E+01 9.44781E+01
 -1        17-5.27609E+01 3.30665E-16-9.44781E+01
 -1        18-5.27609E+01-5.27609E+01-7.10543E-15
 -1        19-5.27609E+01 2.11183E-15 9.44781E+01
 -1        20-5.27609E+01 5.27609E+01 5.55112E-15
 -3
    1PSTEP                       100          20           1          
  100CL  120 15802.47785          20                     0   20           1
 -4  ERROR       1    1
 -5  STR(%)      1    1    0    0
 -1         1 9.23242E-15
 -1         2 9.23242E-15
 -1         3 9.23242E-15
 -1         4 9.23242E-15
 -1         5 9.23242E-15
 -1         6 9.23242E-15
 -1         7 9.23242E-15
 -1         8 9.23242E-15
 -1         9 9.23242E-15
 -1        10 9.23242E-15
 -1        11 9.23242E-15
 -1        12 9.23242E-15
 -1        13 9.23242E-15
 -1        14 9.23242E-15
 -1        15 9.23242E-15
 -1        16 9.23242E-15
 -1        17 9.23242E-15
 -1        18 9.23242E-15
 -1        19 9.23242E-15
 -1        20 9.23242E-15
 -3
    1PSTEP                       101          21           1          
  100CL  121 17134.85707          20                     0   21           1
 -4  DISP        4    1
 -5  D1          1    2    1    0
 -5  D2          1    2    2    0
 -5  D3          1    2    3    0
 -5  ALL         1    2    0    0    1ALL
 -1         1 0.00000E+00 0.00000E+00 0.00000E+00
 -1         2 0.00000E+00 0.00000E+00 0.00000E+00
 -1         3 0.00000E+00 0.00000E+00 2.00000E-03
 -1         4 0.00000E+00 0.00000E+00 2.00000E-03
 -1         5 0.00000E+00 0.00000E+00 0.00000E+00
 -1         6 0.00000E+00 0.00000E+00 0.00000E+00
 -1         7 0.00000E+00 0.00000E+00 2.00000E-03
 -1         8 0.00000E+00 0.00000E+00 2.00000E-03
 -1         9 0.00000E+00 0.00000E+00 0.00000E+00
 -1        10 0.00000E+00 0.00000E+00 1.00000E-03
 -1        11 0.00000E+00 0.00000E+00 2.00000E-03
 -1        12 0.00000E+00 0.00000E+00 1.00000E-03
 -1        13 0.00000E+00 0.00000E+00 0.00000E+00
 -1        14 0.00000E+00 0.00000E+00 0.00000E+00
 -1        15 0.00000E+00 0.00000E+00 2.00000E-03
 -1        16 0.00000E+00 0.00000E+00 2.00000E-03
 -1        17 0.00000E+00 0.00000E+00 0.00000E+00
 -1        18 0.00000E+00 0.00000E+00 1.00000E-03
 -1        19 0.00000E+00 0.00000E+00 2.00000E-03
 -1        20 0.00000E+00 0.00000E+00 1.00000E-03
 -3
    1PSTEP                       102          21           1          
  100CL  121 17134.85707          20                     0   21           1
 -4  STRESS      6    1
 -5  SXX         1    4    1    1
 -5  SYY         1    4    2    2
 -5  SZZ         1    4    3    3
 -5  SXY         1    4    1    2
 -5  SYZ         1    4    2    3
 -5  SZX         1    4    3    1
 -1         1 1.58499E+02 1.58499E+02 2.82979E+02 0.00000E+00 2.56779E-14 4.47564E-14
 -1         2 1.58499E+02 1.58499E+02 2.82979E+02 0.00000E+00-4.03853E-14-5.03349E-14
 -1         3 1.58499E+02 1.58499E+02 2.82979E+02 0.00000E+00-6.28112E-15-7.45978E-14
 -1         4 1.58499E+02 1.58499E+02 2.82979E+02 0.00000E+00-1.43695E-14 1.09630E-13
 -1         5 1.58499E+02 1.58499E+02 2.82979E+02 0.00000E+00 1.84336E-14-1.57613E-14
 -1         6 1.58499E+02 1.58499E+02 2.82979E+02 0.00000E+00-1.33109E-14 5.39524E-16
 -1         7 1.58499E+02 1.58499E+02 2.82979E+02 0.00000E+00 1.20270E-13 8.79540E-14
 -1         8 1.58499E+02 1.58499E+02 2.82979E+02 0.00000E+00-1.82678E-16-2.34347E-14
 -1         9 1.58513E+02 1.58513E+02 2.83004E+02 0.00000E+00-2.60669E-14-1.27344E-14
 -1        10 1.58513E+02 1.58513E+02 2.83004E+02 0.00000E+00 2.74119E-14 2.39787E-14
 -1        11 1.58513E+02 1.58513E+02 2.83004E+02 0.00000E+00 1.58467E-14 1.39276E-14
 -1        12 1.58513E+02 1.58513E+02 2.83004E+02 0.00000E+00 1.50673E-14 1.06923E-14
 -1        13 1.58513E+02 1.58513E+02 2.83004E+02 0.00000E+00-1.07122E-14-1.57716E-15
 -1        14 1.58513E+02 1.58513E+02 2.83004E+02 0.00000E+00 2.55293E-14 5.56527E-15
 -1        15 1.58513E+02 1.58513E+02 2.83004E+02 0.00000E+00-7.24232E-14 1.55151E-14
 -1        16 1.58513E+02 1.58513E+02 2.83004E+02 0.00000E+00 2.77074E-14 2.60168E-14
 -1        17 1.58513E+02 1.58513E+02 2.83004E+02 0.00000E+00-3.02944E-15 1.41606E-14
 -1        18 1.58513E+02 1.58513E+02 2.83004E+02 0.00000E+00 3.79362E-14-4.88702E-14
 -1        19 1.58513E+02 1.58513E+02 2.83004E+02 0.00000E+00 3.25580E-14-6.97811E-15
 -1        20 1.58513E+02 1.58513E+02 2.83004E+02 0.00000E+00 1.43439E-14 2.78199E-14
 -3
    1PSTEP                       103          21           1          
  100CL  121 17134.85707          20                     0   21           1
 -4  TOSTRAIN    6    1
 -5  EXX         1    4    1    1
 -5  EYY         1    4    2    2
 -5  EZZ         1    4    3    3
 -5  EXY         1    4    1    2
 -5  EYZ         1    4    2    3
 -5  EZX         1    4    3    1
 -1         1 0.00000E+00 0.00000E+00 1.99992E-03 0.00000E+00 4.12546E-19 7.19066E-19
 -1         2 0.00000E+00 0.00000E+00 1.99992E-03 0.00000E+00-6.48839E-19-8.08690E-19
 -1         3 0.00000E+00 0.00000E+00 1.99992E-03 0.00000E+00-1.00914E-19-1.19850E-18
 -1         4 0.00000E+00 0.00000E+00 1.99992E-03 0.00000E+00-2.30863E-19 1.76134E-18
 -1         5 0.00000E+00 0.00000E+00 1.99992E-03 0.00000E+00 2.96159E-19-2.53224E-19
 -1         6 0.00000E+00 0.00000E+00 1.99992E-03 0.00000E+00-2.13856E-19 8.66809E-21
 -1         7 0.00000E+00 0.00000E+00 1.99992E-03 0.00000E+00 1.93228E-18 1.41309E-18
 -1         8 0.00000E+00 0.00000E+00 1.99992E-03 0.00000E+00-2.93494E-21-3.76507E-19
 -1         9 0.00000E+00 0.00000E+00 2.00010E-03 0.00000E+00-4.18795E-19-2.04593E-19
 -1        10 0.00000E+00 0.00000E+00 2.00010E-03 0.00000E+00 4.40404E-19 3.85247E-19
 -1        11 0.00000E+00 0.00000E+00 2.00010E-03 0.00000E+00 2.54597E-19 2.23763E-19
 -1        12 0.00000E+00 0.00000E+00 2.00010E-03 0.00000E+00 2.42075E-19 1.71784E-19
 -1        13 0.00000E+00 0.00000E+00 2.00010E-03 0.00000E+00-1.72104E-19-2.53389E-20
 -1        14 0.00000E+00 0.00000E+00 2.00010E-03 0.00000E+00 4.10158E-19 8.94127E-20
 -1        15 0.00000E+00 0.00000E+00 2.00010E-03 0.00000E+00-1.16356E-18 2.49269E-19
 -1        16 0.00000E+00 0.00000E+00 2.00010E-03 0.00000E+00 4.45153E-19 4.17991E-19
 -1        17 0.00000E+00 0.00000E+00 2.00010E-03 0.00000E+00-4.86716E-20 2.27507E-19
 -1        18 0.00000E+00 0.00000E+00 2.00010E-03 0.00000E+00 6.09490E-19-7.85158E-19
 -1        19 0.00000E+00 0.00000E+00 2.00010E-03 0.00000E+00 5.23083E-19-1.12112E-19
 -1        20 0.00000E+00 0.00000E+00 2.00010E-03 0.00000E+00 2.30452E-19 4.46960E-19
 -3
    1PSTEP                       104          21           1          
  100CL  121 17134.85707          20                     0   21           1
 -4  FORC        4    1
 -5  F1          1    2    1    0
 -5  F2          1    2    2    0
 -5  F3          1    2    3    0
 -5  ALL         1    2    0    0    1ALL
 -1         1-1.32087E+01-1.32087E+01 2.35825E+01
 -1         2-1.32087E+01 1.32087E+01 2.35825E+01
 -1         3-1.32087E+01 1.32087E+01-2.35825E+01
 -1         4-1.32087E+01-1.32087E+01-2.35825E+01
 -1         5 1.32087E+01-1.32087E+01 2.35825E+01
 -1         6 1.32087E+01 1.32087E+01 2.35825E+01
 -1         7 1.32087E+01 1.32087E+01-2.35825E+01
 -1         8 1.32087E+01-1.32087E+01-2.35825E+01
 -1         9 5.28350E+01-5.56574E-15-9.43300E+01
 -1        10 5.28350E+01-5.28350E+01-3.55271E-15
 -1        11 5.28350E+01 3.81714E-15 9.43300E+01
 -1        12 5.28350E+01 5.28350E+01 1.82909E-14
 -1        13-7.23232E-16 5.28350E+01-9.43300E+01
 -1        14 1.37578E-14-5.28350E+01-9.43300E+01
 -1        15-5.09806E-15-5.28350E+01 9.43300E+01
 -1        16-6.63200E-15 5.28350E+01 9.43300E+01
 -1        17-5.28350E+01 7.76541E-16-9.43300E+01
 -1        18-5.28350E+01-5.28350E+01-5.32907E-15
 -1        19-5.28350E+01 2.11004E-15 9.43300E+01
 -1        20-5.28350E+01 5.28350E+01 7.77156E-15
 -3
    1PSTEP                       105          21           1          
  100CL  121 17134.85707          20                     0   21           1
 -4  ERROR       1    1
 -5  STR(%)      1    1    0    0
 -1         1 5.13718E-15
 -1         2 5.13718E-15
 -1         3 5.13718E-15
 -1         4 5.13718E-15
 -1         5 5.13718E-15
 -1         6 5.13718E-15
 -1         7 5.13718E-15
 -1         8 5.13718E-15
 -1         9 5.13718E-15
 -1        10 5.13718E-15
 -1        11 5.13718E-15
 -1        12 5.13718E-15
 -1        13 5.13718E-15
 -1        14 5.13718E-15
 -1        15 5.13718E-15
 -1        16 5.13718E-15
 -1        17 5.13718E-15
 -1        18 5.13718E-15
 -1        19 5.13718E-15
 -1        20 5.13718E-15
 -3
    1PSTEP                       106          22           1          
  100CL  122 18467.23629          20                     0   22           1
 -4  DISP        4    1
 -5  D1          1    2    1    0
 -5  D2          1    2    2    0
 -5  D3          1    2    3    0
 -5  ALL         1    2    0    0    1ALL
 -1         1 0.00000E+00 0.00000E+00 0.00000E+00
 -1         2 0.00000E+00 0.00000E+00 0.00000E+00
 -1         3 0.00000E+00 0.00000E+00 2.00000E-03
 -1         4 0.00000E+00 0.00000E+00 2.00000E-03
 -1         5 0.00000E+00 0.00000E+00 0.00000E+00
 -1         6 0.00000E+00 0.00000E+00 0.00000E+00
 -1         7 0.00000E+00 0.00000E+00 2.00000E-03
 -1         8 0.00000E+00 0.00000E+00 2.00000E-03
 -1         9 0.00000E+00 0.00000E+00 0.00000E+00
 -1        10 0.00000E+00 0.00000E+00 1.00000E-03
 -1        11 0.00000E+00 0.00000E+00 2.00000E-03
 -1        12 0.00000E+00 0.00000E+00 1.00000E-03
 -1        13 0.00000E+00 0.00000E+00 0.00000E+00
 -1        14 0.00000E+00 0.00000E+00 0.00000E+00
 -1        15 0.00000E+00 0.00000E+00 2.00000E-03
 -1        16 0.00000E+00 0.00000E+00 2.00000E-03
 -1        17 0.00000E+00 0.00000E+00 0.00000E+00
 -1        18 0.00000E+00 0.00000E+00 1.00000E-03
 -1        19 0.00000E+00 0.00000E+00 2.00000E-03
 -1        20 0.00000E+00 0.00000E+00 1.00000E-03
 -3
    1PSTEP                       107          22           1          
  100CL  122 18467.23629          20                     0   22           1
 -4  STRESS      6    1
 -5  SXX         1    4    1    1
 -5  SYY         1    4    2    2
 -5  SZZ         1    4    3    3
 -5  SXY         1    4    1    2
 -5  SYZ         1    4    2    3
 -5  SZX         1    4    3    1
 -1         1 1.58720E+02 1.58720E+02 2.82537E+02 0.00000E+00 2.55411E-14 4.45180E-14
 -1         2 1.58720E+02 1.58720E+02 2.82537E+02 0.00000E+00-4.01702E-14-5.00667E-14
 -1         3 1.58720E+02 1.58720E+02 2.82537E+02 0.00000E+00-6.24766E-15-7.42004E-14
 -1         4 1.58720E+02 1.58720E+02 2.82537E+02 0.00000E+00-1.42929E-14 1.09046E-13
 -1         5 1.58720E+02 1.58720E+02 2.82537E+02 0.00000E+00 1.83355E-14-1.56773E-14
 -1         6 1.58720E+02 1.58720E+02 2.82537E+02 0.00000E+00-1.32400E-14 5.36650E-16
 -1         7 1.58720E+02 1.58720E+02 2.82537E+02 0.00000E+00 1.19629E-13 8.74855E-14
 -1         8 1.58720E+02 1.58720E+02 2.82537E+02 0.00000E+00-1.81705E-16-2.33099E-14
 -1         9 1.58734E+02 1.58734E+02 2.82562E+02 0.00000E+00-2.59280E-14-1.26665E-14
 -1        10 1.58734E+02 1.58734E+02 2.82562E+02 0.00000E+00 2.72658E-14 2.38510E-14
 -1        11 1.58734E+02 1.58734E+02 2.82562E+02 0.00000E+00 1.57623E-14 1.38534E-14
 -1        12 1.58734E+02 1.58734E+02 2.82562E+02 0.00000E+00 1.49871E-14 1.06353E-14
 -1        13 1.58734E+02 1.58734E+02 2.82562E+02 0.00000E+00-1.06551E-14-1.56876E-15
 -1        14 1.58734E+02 1.58734E+02 2.82562E+02 0.00000E+00 2.53933E-14 5.53563E-15
 -1        15 1.58734E+02 1.58734E+02 2.82562E+02 0.00000E+00-7.20374E-14 1.54325E-14
 -1        16 1.58734E+02 1.58734E+02 2.82562E+02 0.00000E+00 2.75598E-14 2.58782E-14
 -1        17 1.58734E+02 1.58734E+02 2.82562E+02 0.00000E+00-3.01330E-15 1.40852E-14
 -1        18 1.58734E+02 1.58734E+02 2.82562E+02 0.00000E+00 3.77341E-14-4.86099E-14
 -1        19 1.58734E+02 1.58734E+02 2.82562E+02 0.00000E+00 3.23846E-14-6.94094E-15
 -1        20 1.58734E+02 1.58734E+02 2.82562E+02 0.00000E+00 1.42675E-14 2.76717E-14
 -3
    1PSTEP                       108          22           1          
  100CL  122 18467.23629          20                     0   22           1
 -4  TOSTRAIN    6    1
 -5  EXX         1    4    1    1
 -5  EYY         1    4    2    2
 -5  EZZ         1    4    3    3
 -5  EXY         1    4    1    2
 -5  EYZ         1    4    2    3
 -5  EZX         1    4    3    1
 -1         1 0.00000E+00 0.00000E+00 1.99992E-03 0.00000E+00 4.12546E-19 7.19066E-19
 -1         2 0.00000E+00 0.00000E+00 1.99992E-03 0.00000E+00-6.48839E-19-8.08690E-19
 -1         3 0.00000E+00 0.00000E+00 1.99992E-03 0.00000E+00-1.00914E-19-1.19850E-18
 -1         4 0.00000E+00 0.00000E+00 1.99992E-03 0.00000E+00-2.30863E-19 1.76134E-18
 -1         5 0.00000E+00 0.00000E+00 1.99992E-03 0.00000E+00 2.96159E-19-2.53224E-19
 -1         6 0.00000E+00 0.00000E+00 1.99992E-03 0.00000E+00-2.13856E-19 8.66809E-21
 -1         7 0.00000E+00 0.00000E+00 1.99992E-03 0.00000E+00 1.93228E-18 1.41309E-18
 -1         8 0.00000E+00 0.00000E+00 1.99992E-03 0.00000E+00-2.93494E-21-3.76507E-19
 -1         9 0.00000E+00 0.00000E+00 2.00010E-03 0.00000E+00-4.18795E-19-2.04593E-19
 -1        10 0.00000E+00 0.00000E+00 2.00010E-03 0.00000E+00 4.40404E-19 3.85247E-19
 -1        11 0.00000E+00 0.00000E+00 2.00010E-03 0.00000E+00 2.54597E-19 2.23763E-19
 -1        12 0.00000E+00 0.00000E+00 2.00010E-03 0.00000E+00 2.42075E-19 1.71784E-19
 -1        13 0.00000E+00 0.00000E+00 2.00010E-03 0.00000E+00-1.72104E-19-2.53389E-20
 -1        14 0.00000E+00 0.00000E+00 2.00010E-03 0.00000E+00 4.10158E-19 8.94127E-20
 -1        15 0.00000E+00 0.00000E+00 2.00010E-03 0.00000E+00-1.16356E-18 2.49269E-19
 -1        16 0.00000E+00 0.00000E+00 2.00010E-03 0.00000E+00 4.45153E-19 4.17991E-19
 -1        17 0.00000E+00 0.00000E+00 2.00010E-03 0.00000E+00-4.86716E-20 2.27507E-19
 -1        18 0.00000E+00 0.00000E+00 2.00010E-03 0.00000E+00 6.09490E-19-7.85158E-19
 -1        19 0.00000E+00 0.00000E+00 2.00010E-03 0.00000E+00 5.23083E-19-1.12112E-19
 -1        20 0.00000E+00 0.00000E+00 2.00010E-03 0.00000E+00 2.30452E-19 4.46960E-19
 -3
    1PSTEP                       109          22           1          
  100CL  122 18467.23629          20                     0   22           1
 -4  FORC        4    1
 -5  F1          1    2    1    0
 -5  F2          1    2    2    0
 -5  F3          1    2    3    0
 -5  ALL         1    2    0    0    1ALL
 -1         1-1.32272E+01-1.32272E+01 2.35457E+01
 -1         2-1.32272E+01 1.32272E+01 2.35457E+01
 -1         3-1.32272E+01 1.32272E+01-2.35457E+01
 -1         4-1.32272E+01-1.32272E+01-2.35457E+01
 -1         5 1.32272E+01-1.32272E+01 2.35457E+01
 -1         6 1.32272E+01 1.32272E+01 2.35457E+01
 -1         7 1.32272E+01 1.32272E+01-2.35457E+01
 -1         8 1.32272E+01-1.32272E+01-2.35457E+01
 -1         9 5.29087E+01-6.67574E-15-9.41826E+01
 -1        10 5.29087E+01-5.29087E+01-2.44249E-15
 -1        11 5.29087E+01 2.92874E-15 9.41826E+01
 -1        12 5.29087E+01 5.29087E+01 2.23987E-14
 -1        13-3.34497E-16 5.29087E+01-9.41826E+01
 -1        14 1.06504E-14-5.29087E+01-9.41826E+01
 -1        15-1.22047E-14-5.29087E+01 9.41826E+01
 -1        16-5.52193E-15 5.29087E+01 9.41826E+01
 -1        17-5.29087E+01-3.31905E-16-9.41826E+01
 -1        18-5.29087E+01-5.29087E+01-7.10543E-15
 -1        19-5.29087E+01 3.31905E-16 9.41826E+01
 -1        20-5.29087E+01 5.29087E+01 7.54952E-15
 -3
    1PSTEP                       110          22           1          
  100CL  122 18467.23629          20                     0   22           1
 -4  ERROR       1    1
 -5  STR(%)      1    1    0    0
 -1         1 1.54357E-14
 -1         2 1.54357E-14
 -1         3 1.54357E-14
 -1         4 1.54357E-14
 -1         5 1.54357E-14
 -1         6 1.54357E-14
 -1         7 1.54357E-14
 -1         8 1.54357E-14
 -1         9 1.54357E-14
 -1        10 1.54357E-14
 -1        11 1.54357E-14
 -1        12 1.54357E-14
 -1        13 1.54357E-14
 -1        14 1.54357E-14
 -1        15 1.54357E-14
 -1        16 1.54357E-14
 -1        17 1.54357E-14
 -1        18 1.54357E-14
 -1        19 1.54357E-14
 -1        20 1.54357E-14
 -3
    1PSTEP                       111          23           1          
  100CL  123 20465.80512          20                     0   23           1
 -4  DISP        4    1
 -5  D1          1    2    1    0
 -5  D2          1    2    2    0
 -5  D3          1    2    3    0
 -5  ALL         1    2    0    0    1ALL
 -1         1 0.00000E+00 0.00000E+00 0.00000E+00
 -1         2 0.00000E+00 0.00000E+00 0.00000E+00
 -1         3 0.00000E+00 0.00000E+00 2.00000E-03
 -1         4 0.00000E+00 0.00000E+00 2.00000E-03
 -1         5 0.00000E+00 0.00000E+00 0.00000E+00
 -1         6 0.00000E+00 0.00000E+00 0.00000E+00
 -1         7 0.00000E+00 0.00000E+00 2.00000E-03
 -1         8 0.00000E+00 0.00000E+00 2.00000E-03
 -1         9 0.00000E+00 0.00000E+00 0.00000E+00
 -1        10 0.00000E+00 0.00000E+00 1.00000E-03
 -1        11 0.00000E+00 0.00000E+00 2.00000E-03
 -1        12 0.00000E+00 0.00000E+00 1.00000E-03
 -1        13 0.00000E+00 0.00000E+00 0.00000E+00
 -1        14 0.00000E+00 0.00000E+00 0.00000E+00
 -1        15 0.00000E+00 0.00000E+00 2.00000E-03
 -1        16 0.00000E+00 0.00000E+00 2.00000E-03
 -1        17 0.00000E+00 0.00000E+00 0.00000E+00
 -1        18 0.00000E+00 0.00000E+00 1.00000E-03
 -1        19 0.00000E+00 0.00000E+00 2.00000E-03
 -1        20 0.00000E+00 0.00000E+00 1.00000E-03
 -3
    1PSTEP                       112          23           1          
  100CL  123 20465.80512          20                     0   23           1
 -4  STRESS      6    1
 -5  SXX         1    4    1    1
 -5  SYY         1    4    2    2
 -5  SZZ         1    4    3    3
 -5  SXY         1    4    1    2
 -5  SYZ         1    4    2    3
 -5  SZX         1    4    3    1
 -1         1 1.59049E+02 1.59049E+02 2.81879E+02 0.00000E+00 2.53376E-14 4.41633E-14
 -1         2 1.59049E+02 1.59049E+02 2.81879E+02 0.00000E+00-3.98501E-14-4.96678E-14
 -1         3 1.59049E+02 1.59049E+02 2.81879E+02 0.00000E+00-6.19787E-15-7.36091E-14
 -1         4 1.59049E+02 1.59049E+02 2.81879E+02 0.00000E+00-1.41790E-14 1.08177E-13
 -1         5 1.59049E+02 1.59049E+02 2.81879E+02 0.00000E+00 1.81893E-14-1.55524E-14
 -1         6 1.59049E+02 1.59049E+02 2.81879E+02 0.00000E+00-1.31345E-14 5.32373E-16
 -1         7 1.59049E+02 1.59049E+02 2.81879E+02 0.00000E+00 1.18676E-13 8.67883E-14
 -1         8 1.59049E+02 1.59049E+02 2.81879E+02 0.00000E+00-1.80257E-16-2.31241E-14
 -1         9 1.59063E+02 1.59063E+02 2.81904E+02 0.00000E+00-2.57214E-14-1.25656E-14
 -1        10 1.59063E+02 1.59063E+02 2.81904E+02 0.00000E+00 2.70486E-14 2.36609E-14
 -1        11 1.59063E+02 1.59063E+02 2.81904E+02 0.00000E+00 1.56367E-14 1.37430E-14
 -1        12 1.59063E+02 1.59063E+02 2.81904E+02 0.00000E+00 1.48676E-14 1.05506E-14
 -1        13 1.59063E+02 1.59063E+02 2.81904E+02 0.00000E+00-1.05702E-14-1.55626E-15
 -1        14 1.59063E+02 1.59063E+02 2.81904E+02 0.00000E+00 2.51909E-14 5.49151E-15
 -1        15 1.59063E+02 1.59063E+02 2.81904E+02 0.00000E+00-7.14633E-14 1.53095E-14
 -1        16 1.59063E+02 1.59063E+02 2.81904E+02 0.00000E+00 2.73402E-14 2.56720E-14
 -1        17 1.59063E+02 1.59063E+02 2.81904E+02 0.00000E+00-2.98929E-15 1.39729E-14
 -1        18 1.59063E+02 1.59063E+02 2.81904E+02 0.00000E+00 3.74334E-14-4.82225E-14
 -1        19 1.59063E+02 1.59063E+02 2.81904E+02 0.00000E+00 3.21265E-14-6.88563E-15
 -1        20 1.59063E+02 1.59063E+02 2.81904E+02 0.00000E+00 1.41538E-14 2.74512E-14
 -3
    1PSTEP                       113          23           1          
  100CL  123 20465.80512          20                     0   23           1
 -4  TOSTRAIN    6    1
 -5  EXX         1    4    1    1
 -5  EYY         1    4    2    2
 -5  EZZ         1    4    3    3
 -5  EXY         1    4    1    2
 -5  EYZ         1    4    2    3
 -5  EZX         1    4    3    1
 -1         1 0.00000E+00 0.00000E+00 1.99992E-03 0.00000E+00 4.12546E-19 7.19066E-19
 -1         2 0.00000E+00 0.00000E+00 1.99992E-03 0.00000E+00-6.48839E-19-8.08690E-19
 -1         3 0.00000E+00 0.00000E+00 1.99992E-03 0.00000E+00-1.00914E-19-1.19850E-18
 -1         4 0.00000E+00 0.00000E+00 1.99992E-03 0.00000E+00-2.30863E-19 1.76134E-18
 -1         5 0.00000E+00 0.00000E+00 1.99992E-03 0.00000E+00 2.96159E-19-2.53224E-19
 -1         6 0.00000E+00 0.00000E+00 1.99992E-03 0.00000E+00-2.13856E-19 8.66809E-21
 -1         7 0.00000E+00 0.00000E+00 1.99992E-03 0.00000E+00 1.93228E-18 1.41309E-18
 -1         8 0.00000E+00 0.00000E+00 1.99992E-03 0.00000E+00-2.93494E-21-3.76507E-19
 -1         9 0.00000E+00 0.00000E+00 2.00010E-03 0.00000E+00-4.18795E-19-2.04593E-19
 -1        10 0.00000E+00 0.00000E+00 2.00010E-03 0.00000E+00 4.40404E-19 3.85247E-19
 -1        11 0.00000E+00 0.00000E+00 2.00010E-03 0.00000E+00 2.54597E-19 2.23763E-19
 -1        12 0.00000E+00 0.00000E+00 2.00010E-03 0.00000E+00 2.42075E-19 1.71784E-19
 -1        13 0.00000E+00 0.00000E+00 2.00010E-03 0.00000E+00-1.72104E-19-2.53389E-20
 -1        14 0.00000E+00 0.00000E+00 2.00010E-03 0.00000E+00 4.10158E-19 8.94127E-20
 -1        15 0.00000E+00 0.00000E+00 2.00010E-03 0.00000E+00-1.16356E-18 2.49269E-19
 -1        16 0.00000E+00 0.00000E+00 2.00010E-03 0.00000E+00 4.45153E-19 4.17991E-19
 -1        17 0.00000E+00 0.00000E+00 2.00010E-03 0.00000E+00-4.86716E-20 2.27507E-19
 -1        18 0.00000E+00 0.00000E+00 2.00010E-03 0.00000E+00 6.09490E-19-7.85158E-19
 -1        19 0.00000E+00 0.00000E+00 2.00010E-03 0.00000E+00 5.23083E-19-1.12112E-19
 -1        20 0.00000E+00 0.00000E+00 2.00010E-03 0.00000E+00 2.30452E-19 4.46960E-19
 -3
    1PSTEP                       114          23           1          
  100CL  123 20465.80512          20                     0   23           1
 -4  FORC        4    1
 -5  F1          1    2    1    0
 -5  F2          1    2    2    0
 -5  F3          1    2    3    0
 -5  ALL         1    2    0    0    1ALL
 -1         1-1.32546E+01-1.32546E+01 2.34908E+01
 -1         2-1.32546E+01 1.32546E+01 2.34908E+01
 -1         3-1.32546E+01 1.32546E+01-2.34908E+01
 -1         4-1.32546E+01-1.32546E+01-2.34908E+01
 -1         5 1.32546E+01-1.32546E+01 2.34908E+01
 -1         6 1.32546E+01 1.32546E+01 2.34908E+01
 -1         7 1.32546E+01 1.32546E+01-2.34908E+01
 -1         8 1.32546E+01-1.32546E+01-2.34908E+01
 -1         9 5.30183E+01-7.56358E-15-9.39634E+01
 -1        10 5.30183E+01-5.30183E+01 1.02141E-14
 -1        11 5.30183E+01 4.48271E-15 9.39634E+01
 -1        12 5.30183E+01 5.30183E+01 3.11973E-14
 -1        13 4.30092E-15 5.30183E+01-9.39634E+01
 -1        14 2.06442E-14-5.30183E+01-9.39634E+01
 -1        15 7.33338E-15-5.30183E+01 9.39634E+01
 -1        16-8.40874E-15 5.30183E+01 9.39634E+01
 -1        17-5.30183E+01 5.58919E-16-9.39634E+01
 -1        18-5.30183E+01-5.30183E+01 5.32907E-15
 -1        19-5.30183E+01 2.10562E-15 9.39634E+01
 -1        20-5.30183E+01 5.30183E+01 5.32907E-15
 -3
    1PSTEP                       115          23           1          
  100CL  123 20465.80512          20                     0   23           1
 -4  ERROR       1    1
 -5  STR(%)      1    1    0    0
 -1         1 9.28300E-15
 -1         2 9.28300E-15
 -1         3 9.28300E-15
 -1         4 9.28300E-15
 -1         5 9.28300E-15
 -1         6 9.28300E-15
 -1         7 9.28300E-15
 -1         8 9.28300E-15
 -1         9 9.28300E-15
 -1        10 9.28300E-15
 -1        11 9.28300E-15
 -1        12 9.28300E-15
 -1        13 9.28300E-15
 -1        14 9.28300E-15
 -1        15 9.28300E-15
 -1        16 9.28300E-15
 -1        17 9.28300E-15
 -1        18 9.28300E-15
 -1        19 9.28300E-15
 -1        20 9.28300E-15
 -3
    1PSTEP                       116          24           1          
  100CL  124 21911.79487          20                     0   24           1
 -4  DISP        4    1
 -5  D1          1    2    1    0
 -5  D2          1    2    2    0
 -5  D3          1    2    3    0
 -5  ALL         1    2    0    0    1ALL
 -1         1 0.00000E+00 0.00000E+00 0.00000E+00
 -1         2 0.00000E+00 0.00000E+00 0.00000E+00
 -1         3 0.00000E+00 0.00000E+00 2.00000E-03
 -1         4 0.00000E+00 0.00000E+00 2.00000E-03
 -1         5 0.00000E+00 0.00000E+00 0.00000E+00
 -1         6 0.00000E+00 0.00000E+00 0.00000E+00
 -1         7 0.00000E+00 0.00000E+00 2.00000E-03
 -1         8 0.00000E+00 0.00000E+00 2.00000E-03
 -1         9 0.00000E+00 0.00000E+00 0.00000E+00
 -1        10 0.00000E+00 0.00000E+00 1.00000E-03
 -1        11 0.00000E+00 0.00000E+00 2.00000E-03
 -1        12 0.00000E+00 0.00000E+00 1.00000E-03
 -1        13 0.00000E+00 0.00000E+00 0.00000E+00
 -1        14 0.00000E+00 0.00000E+00 0.00000E+00
 -1        15 0.00000E+00 0.00000E+00 2.00000E-03
 -1        16 0.00000E+00 0.00000E+00 2.00000E-03
 -1        17 0.00000E+00 0.00000E+00 0.00000E+00
 -1        18 0.00000E+00 0.00000E+00 1.00000E-03
 -1        19 0.00000E+00 0.00000E+00 2.00000E-03
 -1        20 0.00000E+00 0.00000E+00 1.00000E-03
 -3
    1PSTEP                       117          24           1          
  100CL  124 21911.79487          20                     0   24           1
 -4  STRESS      6    1
 -5  SXX         1    4    1    1
 -5  SYY         1    4    2    2
 -5  SZZ         1    4    3    3
 -5  SXY         1    4    1    2
 -5  SYZ         1    4    2    3
 -5  SZX         1    4    3    1
 -1         1 1.59285E+02 1.59285E+02 2.81406E+02 0.00000E+00 2.51912E-14 4.39081E-14
 -1         2 1.59285E+02 1.59285E+02 2.81406E+02 0.00000E+00-3.96198E-14-4.93808E-14
 -1         3 1.59285E+02 1.59285E+02 2.81406E+02 0.00000E+00-6.16206E-15-7.31837E-14
 -1         4 1.59285E+02 1.59285E+02 2.81406E+02 0.00000E+00-1.40971E-14 1.07552E-13
 -1         5 1.59285E+02 1.59285E+02 2.81406E+02 0.00000E+00 1.80842E-14-1.54625E-14
 -1         6 1.59285E+02 1.59285E+02 2.81406E+02 0.00000E+00-1.30586E-14 5.29297E-16
 -1         7 1.59285E+02 1.59285E+02 2.81406E+02 0.00000E+00 1.17990E-13 8.62868E-14
 -1         8 1.59285E+02 1.59285E+02 2.81406E+02 0.00000E+00-1.79215E-16-2.29905E-14
 -1         9 1.59300E+02 1.59300E+02 2.81431E+02 0.00000E+00-2.55728E-14-1.24930E-14
 -1        10 1.59300E+02 1.59300E+02 2.81431E+02 0.00000E+00 2.68923E-14 2.35242E-14
 -1        11 1.59300E+02 1.59300E+02 2.81431E+02 0.00000E+00 1.55463E-14 1.36636E-14
 -1        12 1.59300E+02 1.59300E+02 2.81431E+02 0.00000E+00 1.47817E-14 1.04896E-14
 -1        13 1.59300E+02 1.59300E+02 2.81431E+02 0.00000E+00-1.05091E-14-1.54726E-15
 -1        14 1.59300E+02 1.59300E+02 2.81431E+02 0.00000E+00 2.50454E-14 5.45978E-15
 -1        15 1.59300E+02 1.59300E+02 2.81431E+02 0.00000E+00-7.10504E-14 1.52210E-14
 -1        16 1.59300E+02 1.59300E+02 2.81431E+02 0.00000E+00 2.71822E-14 2.55236E-14
 -1        17 1.59300E+02 1.59300E+02 2.81431E+02 0.00000E+00-2.97202E-15 1.38922E-14
 -1        18 1.59300E+02 1.59300E+02 2.81431E+02 0.00000E+00 3.72171E-14-4.79439E-14
 -1        19 1.59300E+02 1.59300E+02 2.81431E+02 0.00000E+00 3.19409E-14-6.84584E-15
 -1        20 1.59300E+02 1.59300E+02 2.81431E+02 0.00000E+00 1.40720E-14 2.72926E-14
 -3
    1PSTEP                       118          24           1          
  100CL  124 21911.79487          20                     0   24           1
 -4  TOSTRAIN    6    1
 -5  EXX         1    4    1    1
 -5  EYY         1    4    2    2
 -5  EZZ         1    4    3    3
 -5  EXY         1    4    1    2
 -5  EYZ         1    4    2    3
 -5  EZX         1    4    3    1
 -1         1 0.00000E+00 0.00000E+00 1.99992E-03 0.00000E+00 4.12546E-19 7.19066E-19
 -1         2 0.00000E+00 0.00000E+00 1.99992E-03 0.00000E+00-6.48839E-19-8.08690E-19
 -1         3 0.00000E+00 0.00000E+00 1.99992E-03 0.00000E+00-1.00914E-19-1.19850E-18
 -1         4 0.00000E+00 0.00000E+00 1.99992E-03 0.00000E+00-2.30863E-19 1.76134E-18
 -1         5 0.00000E+00 0.00000E+00 1.99992E-03 0.00000E+00 2.96159E-19-2.53224E-19
 -1         6 0.00000E+00 0.00000E+00 1.99992E-03 0.00000E+00-2.13856E-19 8.66809E-21
 -1         7 0.00000E+00 0.00000E+00 1.99992E-03 0.00000E+00 1.93228E-18 1.41309E-18
 -1         8 0.00000E+00 0.00000E+00 1.99992E-03 0.00000E+00-2.93494E-21-3.76507E-19
 -1         9 0.00000E+00 0.00000E+00 2.00010E-03 0.00000E+00-4.18795E-19-2.04593E-19
 -1        10 0.00000E+00 0.00000E+00 2.00010E-03 0.00000E+00 4.40404E-19 3.85247E-19
 -1        11 0.00000E+00 0.00000E+00 2.00010E-03 0.00000E+00 2.54597E-19 2.23763E-19
 -1        12 0.00000E+00 0.00000E+00 2.00010E-03 0.00000E+00 2.42075E-19 1.71784E-19
 -1        13 0.00000E+00 0.00000E+00 2.00010E-03 0.00000E+00-1.72104E-19-2.53389E-20
 -1        14 0.00000E+00 0.00000E+00 2.00010E-03 0.00000E+00 4.10158E-19 8.94127E-20
 -1        15 0.00000E+00 0.00000E+00 2.00010E-03 0.00000E+00-1.16356E-18 2.49269E-19
 -1        16 0.00000E+00 0.00000E+00 2.00010E-03 0.00000E+00 4.45153E-19 4.17991E-19
 -1        17 0.00000E+00 0.00000E+00 2.00010E-03 0.00000E+00-4.86716E-20 2.27507E-19
 -1        18 0.00000E+00 0.00000E+00 2.00010E-03 0.00000E+00 6.09490E-19-7.85158E-19
 -1        19 0.00000E+00 0.00000E+00 2.00010E-03 0.00000E+00 5.23083E-19-1.12112E-19
 -1        20 0.00000E+00 0.00000E+00 2.00010E-03 0.00000E+00 2.30452E-19 4.46960E-19
 -3
    1PSTEP                       119          24           1          
  100CL  124 21911.79487          20                     0   24           1
 -4  FORC        4    1
 -5  F1          1    2    1    0
 -5  F2          1    2    2    0
 -5  F3          1    2    3    0
 -5  ALL         1    2    0    0    1ALL
 -1         1-1.32743E+01-1.32743E+01 2.34514E+01
 -1         2-1.32743E+01 1.32743E+01 2.34514E+01
 -1         3-1.32743E+01 1.32743E+01-2.34514E+01
 -1         4-1.32743E+01-1.32743E+01-2.34514E+01
 -1         5 1.32743E+01-1.32743E+01 2.34514E+01
 -1         6 1.32743E+01 1.32743E+01 2.34514E+01
 -1         7 1.32743E+01 1.32743E+01-2.34514E+01
 -1         8 1.32743E+01-1.32743E+01-2.34514E+01
 -1         9 5.30972E+01-7.70212E-15-9.38056E+01
 -1        10 5.30972E+01-5.30972E+01 1.33227E-15
 -1        11 5.30972E+01 4.48247E-15 9.38056E+01
 -1        12 5.30972E+01 5.30972E+01 2.30094E-14
 -1        13-3.99783E-15 5.30972E+01-9.38056E+01
 -1        14 1.53165E-14-5.30972E+01-9.38056E+01
 -1        15-1.04315E-14-5.30972E+01 9.38056E+01
 -1        16-1.01853E-14 5.30972E+01 9.38056E+01
 -1        17-5.30972E+01 3.38777E-16-9.38056E+01
 -1        18-5.30972E+01-5.30972E+01 0.00000E+00
 -1        19-5.30972E+01 2.10371E-15 9.38056E+01
 -1        20-5.30972E+01 5.30972E+01 2.22045E-16
 -3
    1PSTEP                       120          24           1          
  100CL  124 21911.79487          20                     0   24           1
 -4  ERROR       1    1
 -5  STR(%)      1    1    0    0
 -1         1 5.16590E-15
 -1         2 5.16590E-15
 -1         3 5.16590E-15
 -1         4 5.16590E-15
 -1         5 5.16590E-15
 -1         6 5.16590E-15
 -1         7 5.16590E-15
 -1         8 5.16590E-15
 -1         9 5.16590E-15
 -1        10 5.16590E-15
 -1        11 5.16590E-15
 -1        12 5.16590E-15
 -1        13 5.16590E-15
 -1        14 5.16590E-15
 -1        15 5.16590E-15
 -1        16 5.16590E-15
 -1        17 5.16590E-15
 -1        18 5.16590E-15
 -1        19 5.16590E-15
 -1        20 5.16590E-15
 -3
    1PSTEP                       121          25           1          
  100CL  125 23357.78463          20                     0   25           1
 -4  DISP        4    1
 -5  D1          1    2    1    0
 -5  D2          1    2    2    0
 -5  D3          1    2    3    0
 -5  ALL         1    2    0    0    1ALL
 -1         1 0.00000E+00 0.00000E+00 0.00000E+00
 -1         2 0.00000E+00 0.00000E+00 0.00000E+00
 -1         3 0.00000E+00 0.00000E+00 2.00000E-03
 -1         4 0.00000E+00 0.00000E+00 2.00000E-03
 -1         5 0.00000E+00 0.00000E+00 0.00000E+00
 -1         6 0.00000E+00 0.00000E+00 0.00000E+00
 -1         7 0.00000E+00 0.00000E+00 2.00000E-03
 -1         8 0.00000E+00 0.00000E+00 2.00000E-03
 -1         9 0.00000E+00 0.00000E+00 0.00000E+00
 -1        10 0.00000E+00 0.00000E+00 1.00000E-03
 -1        11 0.00000E+00 0.00000E+00 2.00000E-03
 -1        12 0.00000E+00 0.00000E+00 1.00000E-03
 -1        13 0.00000E+00 0.00000E+00 0.00000E+00
 -1        14 0.00000E+00 0.00000E+00 0.00000E+00
 -1        15 0.00000E+00 0.00000E+00 2.00000E-03
 -1        16 0.00000E+00 0.00000E+00 2.00000E-03
 -1        17 0.00000E+00 0.00000E+00 0.00000E+00
 -1        18 0.00000E+00 0.00000E+00 1.00000E-03
 -1        19 0.00000E+00 0.00000E+00 2.00000E-03
 -1        20 0.00000E+00 0.00000E+00 1.00000E-03
 -3
    1PSTEP                       122          25           1          
  100CL  125 23357.78463          20                     0   25           1
 -4  STRESS      6    1
 -5  SXX         1    4    1    1
 -5  SYY         1    4    2    2
 -5  SZZ         1    4    3    3
 -5  SXY         1    4    1    2
 -5  SYZ         1    4    2    3
 -5  SZX         1    4    3    1
 -1         1 1.59520E+02 1.59520E+02 2.80935E+02 0.00000E+00 2.50456E-14 4.36544E-14
 -1         2 1.59520E+02 1.59520E+02 2.80935E+02 0.00000E+00-3.93909E-14-4.90954E-14
 -1         3 1.59520E+02 1.59520E+02 2.80935E+02 0.00000E+00-6.12645E-15-7.27608E-14
 -1         4 1.59520E+02 1.59520E+02 2.80935E+02 0.00000E+00-1.40156E-14 1.06930E-13
 -1         5 1.59520E+02 1.59520E+02 2.80935E+02 0.00000E+00 1.79797E-14-1.53732E-14
 -1         6 1.59520E+02 1.59520E+02 2.80935E+02 0.00000E+00-1.29832E-14 5.26238E-16
 -1         7 1.59520E+02 1.59520E+02 2.80935E+02 0.00000E+00 1.17309E-13 8.57882E-14
 -1         8 1.59520E+02 1.59520E+02 2.80935E+02 0.00000E+00-1.78179E-16-2.28577E-14
 -1         9 1.59535E+02 1.59535E+02 2.80960E+02 0.00000E+00-2.54250E-14-1.24208E-14
 -1        10 1.59535E+02 1.59535E+02 2.80960E+02 0.00000E+00 2.67369E-14 2.33883E-14
 -1        11 1.59535E+02 1.59535E+02 2.80960E+02 0.00000E+00 1.54565E-14 1.35846E-14
 -1        12 1.59535E+02 1.59535E+02 2.80960E+02 0.00000E+00 1.46963E-14 1.04290E-14
 -1        13 1.59535E+02 1.59535E+02 2.80960E+02 0.00000E+00-1.04484E-14-1.53832E-15
 -1        14 1.59535E+02 1.59535E+02 2.80960E+02 0.00000E+00 2.49007E-14 5.42823E-15
 -1        15 1.59535E+02 1.59535E+02 2.80960E+02 0.00000E+00-7.06398E-14 1.51331E-14
 -1        16 1.59535E+02 1.59535E+02 2.80960E+02 0.00000E+00 2.70252E-14 2.53762E-14
 -1        17 1.59535E+02 1.59535E+02 2.80960E+02 0.00000E+00-2.95484E-15 1.38119E-14
 -1        18 1.59535E+02 1.59535E+02 2.80960E+02 0.00000E+00 3.70021E-14-4.76668E-14
 -1        19 1.59535E+02 1.59535E+02 2.80960E+02 0.00000E+00 3.17563E-14-6.80628E-15
 -1        20 1.59535E+02 1.59535E+02 2.80960E+02 0.00000E+00 1.39907E-14 2.71349E-14
 -3
    1PSTEP                       123          25           1          
  100CL  125 23357.78463          20                     0   25           1
 -4  TOSTRAIN    6    1
 -5  EXX         1    4    1    1
 -5  EYY         1    4    2    2
 -5  EZZ         1    4    3    3
 -5  EXY         1    4    1    2
 -5  EYZ         1    4    2    3
 -5  EZX         1    4    3    1
 -1         1 0.00000E+00 0.00000E+00 1.99992E-03 0.00000E+00 4.12546E-19 7.19066E-19
 -1         2 0.00000E+00 0.00000E+00 1.99992E-03 0.00000E+00-6.48839E-19-8.08690E-19
 -1         3 0.00000E+00 0.00000E+00 1.99992E-03 0.00000E+00-1.00914E-19-1.19850E-18
 -1         4 0.00000E+00 0.00000E+00 1.99992E-03 0.00000E+00-2.30863E-19 1.76134E-18
 -1         5 0.00000E+00 0.00000E+00 1.99992E-03 0.00000E+00 2.96159E-19-2.53224E-19
 -1         6 0.00000E+00 0.00000E+00 1.99992E-03 0.00000E+00-2.13856E-19 8.66809E-21
 -1         7 0.00000E+00 0.00000E+00 1.99992E-03 0.00000E+00 1.93228E-18 1.41309E-18
 -1         8 0.00000E+00 0.00000E+00 1.99992E-03 0.00000E+00-2.93494E-21-3.76507E-19
 -1         9 0.00000E+00 0.00000E+00 2.00010E-03 0.00000E+00-4.18795E-19-2.04593E-19
 -1        10 0.00000E+00 0.00000E+00 2.00010E-03 0.00000E+00 4.40404E-19 3.85247E-19
 -1        11 0.00000E+00 0.00000E+00 2.00010E-03 0.00000E+00 2.54597E-19 2.23763E-19
 -1        12 0.00000E+00 0.00000E+00 2.00010E-03 0.00000E+00 2.42075E-19 1.71784E-19
 -1        13 0.00000E+00 0.00000E+00 2.00010E-03 0.00000E+00-1.72104E-19-2.53389E-20
 -1        14 0.00000E+00 0.00000E+00 2.00010E-03 0.00000E+00 4.10158E-19 8.94127E-20
 -1        15 0.00000E+00 0.00000E+00 2.00010E-03 0.00000E+00-1.16356E-18 2.49269E-19
 -1        16 0.00000E+00 0.00000E+00 2.00010E-03 0.00000E+00 4.45153E-19 4.17991E-19
 -1        17 0.00000E+00 0.00000E+00 2.00010E-03 0.00000E+00-4.86716E-20 2.27507E-19
 -1        18 0.00000E+00 0.00000E+00 2.00010E-03 0.00000E+00 6.09490E-19-7.85158E-19
 -1        19 0.00000E+00 0.00000E+00 2.00010E-03 0.00000E+00 5.23083E-19-1.12112E-19
 -1        20 0.00000E+00 0.00000E+00 2.00010E-03 0.00000E+00 2.30452E-19 4.46960E-19
 -3
    1PSTEP                       124          25           1          
  100CL  125 23357.78463          20                     0   25           1
 -4  FORC        4    1
 -5  F1          1    2    1    0
 -5  F2          1    2    2    0
 -5  F3          1    2    3    0
 -5  ALL         1    2    0    0    1ALL
 -1         1-1.32939E+01-1.32939E+01 2.34122E+01
 -1         2-1.32939E+01 1.32939E+01 2.34122E+01
 -1         3-1.32939E+01 1.32939E+01-2.34122E+01
 -1         4-1.32939E+01-1.32939E+01-2.34122E+01
 -1         5 1.32939E+01-1.32939E+01 2.34122E+01
 -1         6 1.32939E+01 1.32939E+01 2.34122E+01
 -1         7 1.32939E+01 1.32939E+01-2.34122E+01
 -1         8 1.32939E+01-1.32939E+01-2.34122E+01
 -1         9 5.31756E+01-6.00879E-15-9.36488E+01
 -1        10 5.31756E+01-5.31756E+01 5.32907E-15
 -1        11 5.31756E+01 3.59405E-15 9.36488E+01
 -1        12 5.31756E+01 5.31756E+01 2.35645E-14
 -1        13 2.76692E-16 5.31756E+01-9.36488E+01
 -1        14 1.24312E-14-5.31756E+01-9.36488E+01
 -1        15-5.10375E-15-5.31756E+01 9.36488E+01
 -1        16-3.74614E-15 5.31756E+01 9.36488E+01
 -1        17-5.31756E+01 1.45089E-15-9.36488E+01
 -1        18-5.31756E+01-5.31756E+01 5.32907E-15
 -1        19-5.31756E+01 5.65454E-15 9.36488E+01
 -1        20-5.31756E+01 5.31756E+01 4.44089E-15
 -3
    1PSTEP                       125          25           1          
  100CL  125 23357.78463          20                     0   25           1
 -4  ERROR       1    1
 -5  STR(%)      1    1    0    0
 -1         1 9.31418E-15
 -1         2 9.31418E-15
 -1         3 9.31418E-15
 -1         4 9.31418E-15
 -1         5 9.31418E-15
 -1         6 9.31418E-15
 -1         7 9.31418E-15
 -1         8 9.31418E-15
 -1         9 9.31418E-15
 -1        10 9.31418E-15
 -1        11 9.31418E-15
 -1        12 9.31418E-15
 -1        13 9.31418E-15
 -1        14 9.31418E-15
 -1        15 9.31418E-15
 -1        16 9.31418E-15
 -1        17 9.31418E-15
 -1        18 9.31418E-15
 -1        19 9.31418E-15
 -1        20 9.31418E-15
 -3
    1PSTEP                       126          26           1          
  100CL  126 25526.76925          20                     0   26           1
 -4  DISP        4    1
 -5  D1          1    2    1    0
 -5  D2          1    2    2    0
 -5  D3          1    2    3    0
 -5  ALL         1    2    0    0    1ALL
 -1         1 0.00000E+00 0.00000E+00 0.00000E+00
 -1         2 0.00000E+00 0.00000E+00 0.00000E+00
 -1         3 0.00000E+00 0.00000E+00 2.00000E-03
 -1         4 0.00000E+00 0.00000E+00 2.00000E-03
 -1         5 0.00000E+00 0.00000E+00 0.00000E+00
 -1         6 0.00000E+00 0.00000E+00 0.00000E+00
 -1         7 0.00000E+00 0.00000E+00 2.00000E-03
 -1         8 0.00000E+00 0.00000E+00 2.00000E-03
 -1         9 0.00000E+00 0.00000E+00 0.00000E+00
 -1        10 0.00000E+00 0.00000E+00 1.00000E-03
 -1        11 0.00000E+00 0.00000E+00 2.00000E-03
 -1        12 0.00000E+00 0.00000E+00 1.00000E-03
 -1        13 0.00000E+00 0.00000E+00 0.00000E+00
 -1        14 0.00000E+00 0.00000E+00 0.00000E+00
 -1        15 0.00000E+00 0.00000E+00 2.00000E-03
 -1        16 0.00000E+00 0.00000E+00 2.00000E-03
 -1        17 0.00000E+00 0.00000E+00 0.00000E+00
 -1        18 0.00000E+00 0.00000E+00 1.00000E-03
 -1        19 0.00000E+00 0.00000E+00 2.00000E-03
 -1        20 0.00000E+00 0.00000E+00 1.00000E-03
 -3
    1PSTEP                       127          26           1          
  100CL  126 25526.76925          20                     0   26           1
 -4  STRESS      6    1
 -5  SXX         1    4    1    1
 -5  SYY         1    4    2    2
 -5  SZZ         1    4    3    3
 -5  SXY         1    4    1    2
 -5  SYZ         1    4    2    3
 -5  SZX         1    4    3    1
 -1         1 1.59870E+02 1.59870E+02 2.80236E+02 0.00000E+00 2.48291E-14 4.32771E-14
 -1         2 1.59870E+02 1.59870E+02 2.80236E+02 0.00000E+00-3.90505E-14-4.86711E-14
 -1         3 1.59870E+02 1.59870E+02 2.80236E+02 0.00000E+00-6.07350E-15-7.21320E-14
 -1         4 1.59870E+02 1.59870E+02 2.80236E+02 0.00000E+00-1.38945E-14 1.06006E-13
 -1         5 1.59870E+02 1.59870E+02 2.80236E+02 0.00000E+00 1.78243E-14-1.52403E-14
 -1         6 1.59870E+02 1.59870E+02 2.80236E+02 0.00000E+00-1.28710E-14 5.21690E-16
 -1         7 1.59870E+02 1.59870E+02 2.80236E+02 0.00000E+00 1.16295E-13 8.50468E-14
 -1         8 1.59870E+02 1.59870E+02 2.80236E+02 0.00000E+00-1.76639E-16-2.26601E-14
 -1         9 1.59885E+02 1.59885E+02 2.80261E+02 0.00000E+00-2.52052E-14-1.23135E-14
 -1        10 1.59885E+02 1.59885E+02 2.80261E+02 0.00000E+00 2.65058E-14 2.31861E-14
 -1        11 1.59885E+02 1.59885E+02 2.80261E+02 0.00000E+00 1.53229E-14 1.34672E-14
 -1        12 1.59885E+02 1.59885E+02 2.80261E+02 0.00000E+00 1.45693E-14 1.03389E-14
 -1        13 1.59885E+02 1.59885E+02 2.80261E+02 0.00000E+00-1.03581E-14-1.52503E-15
 -1        14 1.59885E+02 1.59885E+02 2.80261E+02 0.00000E+00 2.46854E-14 5.38132E-15
 -1        15 1.59885E+02 1.59885E+02 2.80261E+02 0.00000E+00-7.00293E-14 1.50023E-14
 -1        16 1.59885E+02 1.59885E+02 2.80261E+02 0.00000E+00 2.67916E-14 2.51568E-14
 -1        17 1.59885E+02 1.59885E+02 2.80261E+02 0.00000E+00-2.92931E-15 1.36925E-14
 -1        18 1.59885E+02 1.59885E+02 2.80261E+02 0.00000E+00 3.66823E-14-4.72549E-14
 -1        19 1.59885E+02 1.59885E+02 2.80261E+02 0.00000E+00 3.14818E-14-6.74746E-15
 -1        20 1.59885E+02 1.59885E+02 2.80261E+02 0.00000E+00 1.38698E-14 2.69003E-14
 -3
    1PSTEP                       128          26           1          
  100CL  126 25526.76925          20                     0   26           1
 -4  TOSTRAIN    6    1
 -5  EXX         1    4    1    1
 -5  EYY         1    4    2    2
 -5  EZZ         1    4    3    3
 -5  EXY         1    4    1    2
 -5  EYZ         1    4    2    3
 -5  EZX         1    4    3    1
 -1         1 0.00000E+00 0.00000E+00 1.99992E-03 0.00000E+00 4.12546E-19 7.19066E-19
 -1         2 0.00000E+00 0.00000E+00 1.99992E-03 0.00000E+00-6.48839E-19-8.08690E-19
 -1         3 0.00000E+00 0.00000E+00 1.99992E-03 0.00000E+00-1.00914E-19-1.19850E-18
 -1         4 0.00000E+00 0.00000E+00 1.99992E-03 0.00000E+00-2.30863E-19 1.76134E-18
 -1         5 0.00000E+00 0.00000E+00 1.99992E-03 0.00000E+00 2.96159E-19-2.53224E-19
 -1         6 0.00000E+00 0.00000E+00 1.99992E-03 0.00000E+00-2.13856E-19 8.66809E-21
 -1         7 0.00000E+00 0.00000E+00 1.99992E-03 0.00000E+00 1.93228E-18 1.41309E-18
 -1         8 0.00000E+00 0.00000E+00 1.99992E-03 0.00000E+00-2.93494E-21-3.76507E-19
 -1         9 0.00000E+00 0.00000E+00 2.00010E-03 0.00000E+00-4.18795E-19-2.04593E-19
 -1        10 0.00000E+00 0.00000E+00 2.00010E-03 0.00000E+00 4.40404E-19 3.85247E-19
 -1        11 0.00000E+00 0.00000E+00 2.00010E-03 0.00000E+00 2.54597E-19 2.23763E-19
 -1        12 0.00000E+00 0.00000E+00 2.00010E-03 0.00000E+00 2.42075E-19 1.71784E-19
 -1        13 0.00000E+00 0.00000E+00 2.00010E-03 0.00000E+00-1.72104E-19-2.53389E-20
 -1        14 0.00000E+00 0.00000E+00 2.00010E-03 0.00000E+00 4.10158E-19 8.94127E-20
 -1        15 0.00000E+00 0.00000E+00 2.00010E-03 0.00000E+00-1.16356E-18 2.49269E-19
 -1        16 0.00000E+00 0.00000E+00 2.00010E-03 0.00000E+00 4.45153E-19 4.17991E-19
 -1        17 0.00000E+00 0.00000E+00 2.00010E-03 0.00000E+00-4.86716E-20 2.27507E-19
 -1        18 0.00000E+00 0.00000E+00 2.00010E-03 0.00000E+00 6.09490E-19-7.85158E-19
 -1        19 0.00000E+00 0.00000E+00 2.00010E-03 0.00000E+00 5.23083E-19-1.12112E-19
 -1        20 0.00000E+00 0.00000E+00 2.00010E-03 0.00000E+00 2.30452E-19 4.46960E-19
 -3
    1PSTEP                       129          26           1          
  100CL  126 25526.76925          20                     0   26           1
 -4  FORC        4    1
 -5  F1          1    2    1    0
 -5  F2          1    2    2    0
 -5  F3          1    2    3    0
 -5  ALL         1    2    0    0    1ALL
 -1         1-1.33230E+01-1.33230E+01 2.33539E+01
 -1         2-1.33230E+01 1.33230E+01 2.33539E+01
 -1         3-1.33230E+01 1.33230E+01-2.33539E+01
 -1         4-1.33230E+01-1.33230E+01-2.33539E+01
 -1         5 1.33230E+01-1.33230E+01 2.33539E+01
 -1         6 1.33230E+01 1.33230E+01 2.33539E+01
 -1         7 1.33230E+01 1.33230E+01-2.33539E+01
 -1         8 1.33230E+01-1.33230E+01-2.33539E+01
 -1         9 5.32922E+01-5.81414E-15-9.34156E+01
 -1        10 5.32922E+01-5.32922E+01 4.44089E-15
 -1        11 5.32922E+01 3.59370E-15 9.34156E+01
 -1        12 5.32922E+01 5.32922E+01 2.08444E-14
 -1        13-3.77537E-15 5.32922E+01-9.34156E+01
 -1        14 1.55418E-14-5.32922E+01-9.34156E+01
 -1        15-1.55298E-15-5.32922E+01 9.34156E+01
 -1        16-6.85501E-15 5.32922E+01 9.34156E+01
 -1        17-5.32922E+01-3.22653E-16-9.34156E+01
 -1        18-5.32922E+01-5.32922E+01 1.77636E-15
 -1        19-5.32922E+01 2.09901E-15 9.34156E+01
 -1        20-5.32922E+01 5.32922E+01-4.44089E-16
 -3
    1PSTEP                       130          26           1          
  100CL  126 25526.76925          20                     0   26           1
 -4  ERROR       1    1
 -5  STR(%)      1    1    0    0
 -1         1 8.29994E-15
 -1         2 8.29994E-15
 -1         3 8.29994E-15
 -1         4 8.29994E-15
 -1         5 8.29994E-15
 -1         6 8.29994E-15
 -1         7 8.29994E-15
 -1         8 8.29994E-15
 -1         9 8.29994E-15
 -1        10 8.29994E-15
 -1        11 8.29994E-15
 -1        12 8.29994E-15
 -1        13 8.29994E-15
 -1        14 8.29994E-15
 -1        15 8.29994E-15
 -1        16 8.29994E-15
 -1        17 8.29994E-15
 -1        18 8.29994E-15
 -1        19 8.29994E-15
 -1        20 8.29994E-15
 -3
    1PSTEP                       131          27           1          
  100CL  127 26887.81256          20                     0   27           1
 -4  DISP        4    1
 -5  D1          1    2    1    0
 -5  D2          1    2    2    0
 -5  D3          1    2    3    0
 -5  ALL         1    2    0    0    1ALL
 -1         1 0.00000E+00 0.00000E+00 0.00000E+00
 -1         2 0.00000E+00 0.00000E+00 0.00000E+00
 -1         3 0.00000E+00 0.00000E+00 2.00000E-03
 -1         4 0.00000E+00 0.00000E+00 2.00000E-03
 -1         5 0.00000E+00 0.00000E+00 0.00000E+00
 -1         6 0.00000E+00 0.00000E+00 0.00000E+00
 -1         7 0.00000E+00 0.00000E+00 2.00000E-03
 -1         8 0.00000E+00 0.00000E+00 2.00000E-03
 -1         9 0.00000E+00 0.00000E+00 0.00000E+00
 -1        10 0.00000E+00 0.00000E+00 1.00000E-03
 -1        11 0.00000E+00 0.00000E+00 2.00000E-03
 -1        12 0.00000E+00 0.00000E+00 1.00000E-03
 -1        13 0.00000E+00 0.00000E+00 0.00000E+00
 -1        14 0.00000E+00 0.00000E+00 0.00000E+00
 -1        15 0.00000E+00 0.00000E+00 2.00000E-03
 -1        16 0.00000E+00 0.00000E+00 2.00000E-03
 -1        17 0.00000E+00 0.00000E+00 0.00000E+00
 -1        18 0.00000E+00 0.00000E+00 1.00000E-03
 -1        19 0.00000E+00 0.00000E+00 2.00000E-03
 -1        20 0.00000E+00 0.00000E+00 1.00000E-03
 -3
    1PSTEP                       132          27           1          
  100CL  127 26887.81256          20                     0   27           1
 -4  STRESS      6    1
 -5  SXX         1    4    1    1
 -5  SYY         1    4    2    2
 -5  SZZ         1    4    3    3
 -5  SXY         1    4    1    2
 -5  SYZ         1    4    2    3
 -5  SZX         1    4    3    1
 -1         1 1.60088E+02 1.60088E+02 2.79799E+02 0.00000E+00 2.46940E-14 4.30416E-14
 -1         2 1.60088E+02 1.60088E+02 2.79799E+02 0.00000E+00-3.88380E-14-4.84063E-14
 -1         3 1.60088E+02 1.60088E+02 2.79799E+02 0.00000E+00-6.04046E-15-7.17395E-14
 -1         4 1.60088E+02 1.60088E+02 2.79799E+02 0.00000E+00-1.38189E-14 1.05430E-13
 -1         5 1.60088E+02 1.60088E+02 2.79799E+02 0.00000E+00 1.77274E-14-1.51574E-14
 -1         6 1.60088E+02 1.60088E+02 2.79799E+02 0.00000E+00-1.28009E-14 5.18852E-16
 -1         7 1.60088E+02 1.60088E+02 2.79799E+02 0.00000E+00 1.15662E-13 8.45840E-14
 -1         8 1.60088E+02 1.60088E+02 2.79799E+02 0.00000E+00-1.75678E-16-2.25368E-14
 -1         9 1.60103E+02 1.60103E+02 2.79824E+02 0.00000E+00-2.50681E-14-1.22465E-14
 -1        10 1.60103E+02 1.60103E+02 2.79824E+02 0.00000E+00 2.63616E-14 2.30600E-14
 -1        11 1.60103E+02 1.60103E+02 2.79824E+02 0.00000E+00 1.52396E-14 1.33940E-14
 -1        12 1.60103E+02 1.60103E+02 2.79824E+02 0.00000E+00 1.44900E-14 1.02826E-14
 -1        13 1.60103E+02 1.60103E+02 2.79824E+02 0.00000E+00-1.03018E-14-1.51673E-15
 -1        14 1.60103E+02 1.60103E+02 2.79824E+02 0.00000E+00 2.45511E-14 5.35204E-15
 -1        15 1.60103E+02 1.60103E+02 2.79824E+02 0.00000E+00-6.96483E-14 1.49207E-14
 -1        16 1.60103E+02 1.60103E+02 2.79824E+02 0.00000E+00 2.66458E-14 2.50200E-14
 -1        17 1.60103E+02 1.60103E+02 2.79824E+02 0.00000E+00-2.91337E-15 1.36180E-14
 -1        18 1.60103E+02 1.60103E+02 2.79824E+02 0.00000E+00 3.64827E-14-4.69978E-14
 -1        19 1.60103E+02 1.60103E+02 2.79824E+02 0.00000E+00 3.13105E-14-6.71074E-15
 -1        20 1.60103E+02 1.60103E+02 2.79824E+02 0.00000E+00 1.37943E-14 2.67540E-14
 -3
    1PSTEP                       133          27           1          
  100CL  127 26887.81256          20                     0   27           1
 -4  TOSTRAIN    6    1
 -5  EXX         1    4    1    1
 -5  EYY         1    4    2    2
 -5  EZZ         1    4    3    3
 -5  EXY         1    4    1    2
 -5  EYZ         1    4    2    3
 -5  EZX         1    4    3    1
 -1         1 0.00000E+00 0.00000E+00 1.99992E-03 0.00000E+00 4.12546E-19 7.19066E-19
 -1         2 0.00000E+00 0.00000E+00 1.99992E-03 0.00000E+00-6.48839E-19-8.08690E-19
 -1         3 0.00000E+00 0.00000E+00 1.99992E-03 0.00000E+00-1.00914E-19-1.19850E-18
 -1         4 0.00000E+00 0.00000E+00 1.99992E-03 0.00000E+00-2.30863E-19 1.76134E-18
 -1         5 0.00000E+00 0.00000E+00 1.99992E-03 0.00000E+00 2.96159E-19-2.53224E-19
 -1         6 0.00000E+00 0.00000E+00 1.99992E-03 0.00000E+00-2.13856E-19 8.66809E-21
 -1         7 0.00000E+00 0.00000E+00 1.99992E-03 0.00000E+00 1.93228E-18 1.41309E-18
 -1         8 0.00000E+00 0.00000E+00 1.99992E-03 0.00000E+00-2.93494E-21-3.76507E-19
 -1         9 0.00000E+00 0.00000E+00 2.00010E-03 0.00000E+00-4.18795E-19-2.04593E-19
 -1        10 0.00000E+00 0.00000E+00 2.00010E-03 0.00000E+00 4.40404E-19 3.85247E-19
 -1        11 0.00000E+00 0.00000E+00 2.00010E-03 0.00000E+00 2.54597E-19 2.23763E-19
 -1        12 0.00000E+00 0.00000E+00 2.00010E-03 0.00000E+00 2.42075E-19 1.71784E-19
 -1        13 0.00000E+00 0.00000E+00 2.00010E-03 0.00000E+00-1.72104E-19-2.53389E-20
 -1        14 0.00000E+00 0.00000E+00 2.00010E-03 0.00000E+00 4.10158E-19 8.94127E-20
 -1        15 0.00000E+00 0.00000E+00 2.00010E-03 0.00000E+00-1.16356E-18 2.49269E-19
 -1        16 0.00000E+00 0.00000E+00 2.00010E-03 0.00000E+00 4.45153E-19 4.17991E-19
 -1        17 0.00000E+00 0.00000E+00 2.00010E-03 0.00000E+00-4.86716E-20 2.27507E-19
 -1        18 0.00000E+00 0.00000E+00 2.00010E-03 0.00000E+00 6.09490E-19-7.85158E-19
 -1        19 0.00000E+00 0.00000E+00 2.00010E-03 0.00000E+00 5.23083E-19-1.12112E-19
 -1        20 0.00000E+00 0.00000E+00 2.00010E-03 0.00000E+00 2.30452E-19 4.46960E-19
 -3
    1PSTEP                       134          27           1          
  100CL  127 26887.81256          20                     0   27           1
 -4  FORC        4    1
 -5  F1          1    2    1    0
 -5  F2          1    2    2    0
 -5  F3          1    2    3    0
 -5  ALL         1    2    0    0    1ALL
 -1         1-1.33412E+01-1.33412E+01 2.33175E+01
 -1         2-1.33412E+01 1.33412E+01 2.33175E+01
 -1         3-1.33412E+01 1.33412E+01-2.33175E+01
 -1         4-1.33412E+01-1.33412E+01-2.33175E+01
 -1         5 1.33412E+01-1.33412E+01 2.33175E+01
 -1         6 1.33412E+01 1.33412E+01 2.33175E+01
 -1         7 1.33412E+01 1.33412E+01-2.33175E+01
 -1         8 1.33412E+01-1.33412E+01-2.33175E+01
 -1         9 5.33650E+01-6.81312E-15-9.32701E+01
 -1        10 5.33650E+01-5.33650E+01 5.32907E-15
 -1        11 5.33650E+01 5.36983E-15 9.32701E+01
 -1        12 5.33650E+01 5.33650E+01 1.62648E-14
 -1        13-8.52142E-15 5.33650E+01-9.32701E+01
 -1        14 1.42107E-14-5.33650E+01-9.32701E+01
 -1        15 5.55123E-15-5.33650E+01 9.32701E+01
 -1        16-1.52609E-15 5.33650E+01 9.32701E+01
 -1        17-5.33650E+01-5.42942E-16-9.32701E+01
 -1        18-5.33650E+01-5.33650E+01 7.10543E-15
 -1        19-5.33650E+01 3.20897E-16 9.32701E+01
 -1        20-5.33650E+01 5.33650E+01 7.10543E-15
 -3
    1PSTEP                       135          27           1          
  100CL  127 26887.81256          20                     0   27           1
 -4  ERROR       1    1
 -5  STR(%)      1    1    0    0
 -1         1 6.23467E-15
 -1         2 6.23467E-15
 -1         3 6.23467E-15
 -1         4 6.23467E-15
 -1         5 6.23467E-15
 -1         6 6.23467E-15
 -1         7 6.23467E-15
 -1         8 6.23467E-15
 -1         9 6.23467E-15
 -1        10 6.23467E-15
 -1        11 6.23467E-15
 -1        12 6.23467E-15
 -1        13 6.23467E-15
 -1        14 6.23467E-15
 -1        15 6.23467E-15
 -1        16 6.23467E-15
 -1        17 6.23467E-15
 -1        18 6.23467E-15
 -1        19 6.23467E-15
 -1        20 6.23467E-15
 -3
    1PSTEP                       136          28           1          
  100CL  128 28248.85587          20                     0   28           1
 -4  DISP        4    1
 -5  D1          1    2    1    0
 -5  D2          1    2    2    0
 -5  D3          1    2    3    0
 -5  ALL         1    2    0    0    1ALL
 -1         1 0.00000E+00 0.00000E+00 0.00000E+00
 -1         2 0.00000E+00 0.00000E+00 0.00000E+00
 -1         3 0.00000E+00 0.00000E+00 2.00000E-03
 -1         4 0.00000E+00 0.00000E+00 2.00000E-03
 -1         5 0.00000E+00 0.00000E+00 0.00000E+00
 -1         6 0.00000E+00 0.00000E+00 0.00000E+00
 -1         7 0.00000E+00 0.00000E+00 2.00000E-03
 -1         8 0.00000E+00 0.00000E+00 2.00000E-03
 -1         9 0.00000E+00 0.00000E+00 0.00000E+00
 -1        10 0.00000E+00 0.00000E+00 1.00000E-03
 -1        11 0.00000E+00 0.00000E+00 2.00000E-03
 -1        12 0.00000E+00 0.00000E+00 1.00000E-03
 -1        13 0.00000E+00 0.00000E+00 0.00000E+00
 -1        14 0.00000E+00 0.00000E+00 0.00000E+00
 -1        15 0.00000E+00 0.00000E+00 2.00000E-03
 -1        16 0.00000E+00 0.00000E+00 2.00000E-03
 -1        17 0.00000E+00 0.00000E+00 0.00000E+00
 -1        18 0.00000E+00 0.00000E+00 1.00000E-03
 -1        19 0.00000E+00 0.00000E+00 2.00000E-03
 -1        20 0.00000E+00 0.00000E+00 1.00000E-03
 -3
    1PSTEP                       137          28           1          
  100CL  128 28248.85587          20                     0   28           1
 -4  STRESS      6    1
 -5  SXX         1    4    1    1
 -5  SYY         1    4    2    2
 -5  SZZ         1    4    3    3
 -5  SXY         1    4    1    2
 -5  SYZ         1    4    2    3
 -5  SZX         1    4    3    1
 -1         1 1.60306E+02 1.60306E+02 2.79365E+02 0.00000E+00 2.45597E-14 4.28074E-14
 -1         2 1.60306E+02 1.60306E+02 2.79365E+02 0.00000E+00-3.86267E-14-4.81429E-14
 -1         3 1.60306E+02 1.60306E+02 2.79365E+02 0.00000E+00-6.00759E-15-7.13492E-14
 -1         4 1.60306E+02 1.60306E+02 2.79365E+02 0.00000E+00-1.37437E-14 1.04856E-13
 -1         5 1.60306E+02 1.60306E+02 2.79365E+02 0.00000E+00 1.76309E-14-1.50749E-14
 -1         6 1.60306E+02 1.60306E+02 2.79365E+02 0.00000E+00-1.27313E-14 5.16029E-16
 -1         7 1.60306E+02 1.60306E+02 2.79365E+02 0.00000E+00 1.15033E-13 8.41238E-14
 -1         8 1.60306E+02 1.60306E+02 2.79365E+02 0.00000E+00-1.74723E-16-2.24142E-14
 -1         9 1.60320E+02 1.60320E+02 2.79390E+02 0.00000E+00-2.49317E-14-1.21798E-14
 -1        10 1.60320E+02 1.60320E+02 2.79390E+02 0.00000E+00 2.62182E-14 2.29345E-14
 -1        11 1.60320E+02 1.60320E+02 2.79390E+02 0.00000E+00 1.51566E-14 1.33211E-14
 -1        12 1.60320E+02 1.60320E+02 2.79390E+02 0.00000E+00 1.44112E-14 1.02267E-14
 -1        13 1.60320E+02 1.60320E+02 2.79390E+02 0.00000E+00-1.02457E-14-1.50848E-15
 -1        14 1.60320E+02 1.60320E+02 2.79390E+02 0.00000E+00 2.44176E-14 5.32292E-15
 -1        15 1.60320E+02 1.60320E+02 2.79390E+02 0.00000E+00-6.92694E-14 1.48395E-14
 -1        16 1.60320E+02 1.60320E+02 2.79390E+02 0.00000E+00 2.65009E-14 2.48838E-14
 -1        17 1.60320E+02 1.60320E+02 2.79390E+02 0.00000E+00-2.89752E-15 1.35439E-14
 -1        18 1.60320E+02 1.60320E+02 2.79390E+02 0.00000E+00 3.62842E-14-4.67420E-14
 -1        19 1.60320E+02 1.60320E+02 2.79390E+02 0.00000E+00 3.11402E-14-6.67423E-15
 -1        20 1.60320E+02 1.60320E+02 2.79390E+02 0.00000E+00 1.37192E-14 2.66084E-14
 -3
    1PSTEP                       138          28           1          
  100CL  128 28248.85587          20                     0   28           1
 -4  TOSTRAIN    6    1
 -5  EXX         1    4    1    1
 -5  EYY         1    4    2    2
 -5  EZZ         1    4    3    3
 -5  EXY         1    4    1    2
 -5  EYZ         1    4    2    3
 -5  EZX         1    4    3    1
 -1         1 0.00000E+00 0.00000E+00 1.99992E-03 0.00000E+00 4.12546E-19 7.19066E-19
 -1         2 0.00000E+00 0.00000E+00 1.99992E-03 0.00000E+00-6.48839E-19-8.08690E-19
 -1         3 0.00000E+00 0.00000E+00 1.99992E-03 0.00000E+00-1.00914E-19-1.19850E-18
 -1         4 0.00000E+00 0.00000E+00 1.99992E-03 0.00000E+00-2.30863E-19 1.76134E-18
 -1         5 0.00000E+00 0.00000E+00 1.99992E-03 0.00000E+00 2.96159E-19-2.53224E-19
 -1         6 0.00000E+00 0.00000E+00 1.99992E-03 0.00000E+00-2.13856E-19 8.66809E-21
 -1         7 0.00000E+00 0.00000E+00 1.99992E-03 0.00000E+00 1.93228E-18 1.41309E-18
 -1         8 0.00000E+00 0.00000E+00 1.99992E-03 0.00000E+00-2.93494E-21-3.76507E-19
 -1         9 0.00000E+00 0.00000E+00 2.00010E-03 0.00000E+00-4.18795E-19-2.04593E-19
 -1        10 0.00000E+00 0.00000E+00 2.00010E-03 0.00000E+00 4.40404E-19 3.85247E-19
 -1        11 0.00000E+00 0.00000E+00 2.00010E-03 0.00000E+00 2.54597E-19 2.23763E-19
 -1        12 0.00000E+00 0.00000E+00 2.00010E-03 0.00000E+00 2.42075E-19 1.71784E-19
 -1        13 0.00000E+00 0.00000E+00 2.00010E-03 0.00000E+00-1.72104E-19-2.53389E-20
 -1        14 0.00000E+00 0.00000E+00 2.00010E-03 0.00000E+00 4.10158E-19 8.94127E-20
 -1        15 0.00000E+00 0.00000E+00 2.00010E-03 0.00000E+00-1.16356E-18 2.49269E-19
 -1        16 0.00000E+00 0.00000E+00 2.00010E-03 0.00000E+00 4.45153E-19 4.17991E-19
 -1        17 0.00000E+00 0.00000E+00 2.00010E-03 0.00000E+00-4.86716E-20 2.27507E-19
 -1        18 0.00000E+00 0.00000E+00 2.00010E-03 0.00000E+00 6.09490E-19-7.85158E-19
 -1        19 0.00000E+00 0.00000E+00 2.00010E-03 0.00000E+00 5.23083E-19-1.12112E-19
 -1        20 0.00000E+00 0.00000E+00 2.00010E-03 0.00000E+00 2.30452E-19 4.46960E-19
 -3
    1PSTEP                       139          28           1          
  100CL  128 28248.85587          20                     0   28           1
 -4  FORC        4    1
 -5  F1          1    2    1    0
 -5  F2          1    2    2    0
 -5  F3          1    2    3    0
 -5  ALL         1    2    0    0    1ALL
 -1         1-1.33593E+01-1.33593E+01 2.32813E+01
 -1         2-1.33593E+01 1.33593E+01 2.32813E+01
 -1         3-1.33593E+01 1.33593E+01-2.32813E+01
 -1         4-1.33593E+01-1.33593E+01-2.32813E+01
 -1         5 1.33593E+01-1.33593E+01 2.32813E+01
 -1         6 1.33593E+01 1.33593E+01 2.32813E+01
 -1         7 1.33593E+01 1.33593E+01-2.32813E+01
 -1         8 1.33593E+01-1.33593E+01-2.32813E+01
 -1         9 5.34373E+01-6.89616E-15-9.31253E+01
 -1        10 5.34373E+01-5.34373E+01 3.10862E-15
 -1        11 5.34373E+01 6.70188E-15 9.31253E+01
 -1        12 5.34373E+01 5.34373E+01 1.76525E-14
 -1        13 2.52545E-15 5.34373E+01-9.31253E+01
 -1        14 2.28717E-14-5.34373E+01-9.31253E+01
 -1        15-3.33176E-15-5.34373E+01 9.31253E+01
 -1        16-9.74190E-15 5.34373E+01 9.31253E+01
 -1        17-5.34373E+01-5.41196E-16-9.31253E+01
 -1        18-5.34373E+01-5.34373E+01-1.77636E-15
 -1        19-5.34373E+01 3.19151E-16 9.31253E+01
 -1        20-5.34373E+01 5.34373E+01 2.88658E-15
 -3
    1PSTEP                       140          28           1          
  100CL  128 28248.85587          20                     0   28           1
 -4  ERROR       1    1
 -5  STR(%)      1    1    0    0
 -1         1 5.20363E-15
 -1         2 5.20363E-15
 -1         3 5.20363E-15
 -1         4 5.20363E-15
 -1         5 5.20363E-15
 -1         6 5.20363E-15
 -1         7 5.20363E-15
 -1         8 5.20363E-15
 -1         9 5.20363E-15
 -1        10 5.20363E-15
 -1        11 5.20363E-15
 -1        12 5.20363E-15
 -1        13 5.20363E-15
 -1        14 5.20363E-15
 -1        15 5.20363E-15
 -1        16 5.20363E-15
 -1        17 5.20363E-15
 -1        18 5.20363E-15
 -1        19 5.20363E-15
 -1        20 5.20363E-15
 -3
    1PSTEP                       141          29           1          
  100CL  129 30290.42084          20                     0   29           1
 -4  DISP        4    1
 -5  D1          1    2    1    0
 -5  D2          1    2    2    0
 -5  D3          1    2    3    0
 -5  ALL         1    2    0    0    1ALL
 -1         1 0.00000E+00 0.00000E+00 0.00000E+00
 -1         2 0.00000E+00 0.00000E+00 0.00000E+00
 -1         3 0.00000E+00 0.00000E+00 2.00000E-03
 -1         4 0.00000E+00 0.00000E+00 2.00000E-03
 -1         5 0.00000E+00 0.00000E+00 0.00000E+00
 -1         6 0.00000E+00 0.00000E+00 0.00000E+00
 -1         7 0.00000E+00 0.00000E+00 2.00000E-03
 -1         8 0.00000E+00 0.00000E+00 2.00000E-03
 -1         9 0.00000E+00 0.00000E+00 0.00000E+00
 -1        10 0.00000E+00 0.00000E+00 1.00000E-03
 -1        11 0.00000E+00 0.00000E+00 2.00000E-03
 -1        12 0.00000E+00 0.00000E+00 1.00000E-03
 -1        13 0.00000E+00 0.00000E+00 0.00000E+00
 -1        14 0.00000E+00 0.00000E+00 0.00000E+00
 -1        15 0.00000E+00 0.00000E+00 2.00000E-03
 -1        16 0.00000E+00 0.00000E+00 2.00000E-03
 -1        17 0.00000E+00 0.00000E+00 0.00000E+00
 -1        18 0.00000E+00 0.00000E+00 1.00000E-03
 -1        19 0.00000E+00 0.00000E+00 2.00000E-03
 -1        20 0.00000E+00 0.00000E+00 1.00000E-03
 -3
    1PSTEP                       142          29           1          
  100CL  129 30290.42084          20                     0   29           1
 -4  STRESS      6    1
 -5  SXX         1    4    1    1
 -5  SYY         1    4    2    2
 -5  SZZ         1    4    3    3
 -5  SXY         1    4    1    2
 -5  SYZ         1    4    2    3
 -5  SZX         1    4    3    1
 -1         1 1.60629E+02 1.60629E+02 2.78719E+02 0.00000E+00 2.43598E-14 4.24590E-14
 -1         2 1.60629E+02 1.60629E+02 2.78719E+02 0.00000E+00-3.83123E-14-4.77511E-14
 -1         3 1.60629E+02 1.60629E+02 2.78719E+02 0.00000E+00-5.95870E-15-7.07685E-14
 -1         4 1.60629E+02 1.60629E+02 2.78719E+02 0.00000E+00-1.36319E-14 1.04002E-13
 -1         5 1.60629E+02 1.60629E+02 2.78719E+02 0.00000E+00 1.74874E-14-1.49522E-14
 -1         6 1.60629E+02 1.60629E+02 2.78719E+02 0.00000E+00-1.26277E-14 5.11829E-16
 -1         7 1.60629E+02 1.60629E+02 2.78719E+02 0.00000E+00 1.14096E-13 8.34391E-14
 -1         8 1.60629E+02 1.60629E+02 2.78719E+02 0.00000E+00-1.73301E-16-2.22318E-14
 -1         9 1.60643E+02 1.60643E+02 2.78744E+02 0.00000E+00-2.47288E-14-1.20807E-14
 -1        10 1.60643E+02 1.60643E+02 2.78744E+02 0.00000E+00 2.60048E-14 2.27479E-14
 -1        11 1.60643E+02 1.60643E+02 2.78744E+02 0.00000E+00 1.50333E-14 1.32127E-14
 -1        12 1.60643E+02 1.60643E+02 2.78744E+02 0.00000E+00 1.42939E-14 1.01434E-14
 -1        13 1.60643E+02 1.60643E+02 2.78744E+02 0.00000E+00-1.01623E-14-1.49620E-15
 -1        14 1.60643E+02 1.60643E+02 2.78744E+02 0.00000E+00 2.42188E-14 5.27959E-15
 -1        15 1.60643E+02 1.60643E+02 2.78744E+02 0.00000E+00-6.87056E-14 1.47187E-14
 -1        16 1.60643E+02 1.60643E+02 2.78744E+02 0.00000E+00 2.62852E-14 2.46813E-14
 -1        17 1.60643E+02 1.60643E+02 2.78744E+02 0.00000E+00-2.87393E-15 1.34337E-14
 -1        18 1.60643E+02 1.60643E+02 2.78744E+02 0.00000E+00 3.59889E-14-4.63616E-14
 -1        19 1.60643E+02 1.60643E+02 2.78744E+02 0.00000E+00 3.08867E-14-6.61991E-15
 -1        20 1.60643E+02 1.60643E+02 2.78744E+02 0.00000E+00 1.36076E-14 2.63918E-14
 -3
    1PSTEP                       143          29           1          
  100CL  129 30290.42084          20                     0   29           1
 -4  TOSTRAIN    6    1
 -5  EXX         1    4    1    1
 -5  EYY         1    4    2    2
 -5  EZZ         1    4    3    3
 -5  EXY         1    4    1    2
 -5  EYZ         1    4    2    3
 -5  EZX         1    4    3    1
 -1         1 0.00000E+00 0.00000E+00 1.99992E-03 0.00000E+00 4.12546E-19 7.19066E-19
 -1         2 0.00000E+00 0.00000E+00 1.99992E-03 0.00000E+00-6.48839E-19-8.08690E-19
 -1         3 0.00000E+00 0.00000E+00 1.99992E-03 0.00000E+00-1.00914E-19-1.19850E-18
 -1         4 0.00000E+00 0.00000E+00 1.99992E-03 0.00000E+00-2.30863E-19 1.76134E-18
 -1         5 0.00000E+00 0.00000E+00 1.99992E-03 0.00000E+00 2.96159E-19-2.53224E-19
 -1         6 0.00000E+00 0.00000E+00 1.99992E-03 0.00000E+00-2.13856E-19 8.66809E-21
 -1         7 0.00000E+00 0.00000E+00 1.99992E-03 0.00000E+00 1.93228E-18 1.41309E-18
 -1         8 0.00000E+00 0.00000E+00 1.99992E-03 0.00000E+00-2.93494E-21-3.76507E-19
 -1         9 0.00000E+00 0.00000E+00 2.00010E-03 0.00000E+00-4.18795E-19-2.04593E-19
 -1        10 0.00000E+00 0.00000E+00 2.00010E-03 0.00000E+00 4.40404E-19 3.85247E-19
 -1        11 0.00000E+00 0.00000E+00 2.00010E-03 0.00000E+00 2.54597E-19 2.23763E-19
 -1        12 0.00000E+00 0.00000E+00 2.00010E-03 0.00000E+00 2.42075E-19 1.71784E-19
 -1        13 0.00000E+00 0.00000E+00 2.00010E-03 0.00000E+00-1.72104E-19-2.53389E-20
 -1        14 0.00000E+00 0.00000E+00 2.00010E-03 0.00000E+00 4.10158E-19 8.94127E-20
 -1        15 0.00000E+00 0.00000E+00 2.00010E-03 0.00000E+00-1.16356E-18 2.49269E-19
 -1        16 0.00000E+00 0.00000E+00 2.00010E-03 0.00000E+00 4.45153E-19 4.17991E-19
 -1        17 0.00000E+00 0.00000E+00 2.00010E-03 0.00000E+00-4.86716E-20 2.27507E-19
 -1        18 0.00000E+00 0.00000E+00 2.00010E-03 0.00000E+00 6.09490E-19-7.85158E-19
 -1        19 0.00000E+00 0.00000E+00 2.00010E-03 0.00000E+00 5.23083E-19-1.12112E-19
 -1        20 0.00000E+00 0.00000E+00 2.00010E-03 0.00000E+00 2.30452E-19 4.46960E-19
 -3
    1PSTEP                       144          29           1          
  100CL  129 30290.42084          20                     0   29           1
 -4  FORC        4    1
 -5  F1          1    2    1    0
 -5  F2          1    2    2    0
 -5  F3          1    2    3    0
 -5  ALL         1    2    0    0    1ALL
 -1         1-1.33863E+01-1.33863E+01 2.32275E+01
 -1         2-1.33863E+01 1.33863E+01 2.32275E+01
 -1         3-1.33863E+01 1.33863E+01-2.32275E+01
 -1         4-1.33863E+01-1.33863E+01-2.32275E+01
 -1         5 1.33863E+01-1.33863E+01 2.32275E+01
 -1         6 1.33863E+01 1.33863E+01 2.32275E+01
 -1         7 1.33863E+01 1.33863E+01-2.32275E+01
 -1         8 1.33863E+01-1.33863E+01-2.32275E+01
 -1         9 5.35450E+01-5.81337E-15-9.29100E+01
 -1        10 5.35450E+01-5.35450E+01 7.10543E-15
 -1        11 5.35450E+01 4.48110E-15 9.29100E+01
 -1        12 5.35450E+01 5.35450E+01 1.34892E-14
 -1        13-6.35611E-15 5.35450E+01-9.29100E+01
 -1        14 1.59901E-14-5.35450E+01-9.29100E+01
 -1        15-3.33356E-15-5.35450E+01 9.29100E+01
 -1        16-3.30283E-15 5.35450E+01 9.29100E+01
 -1        17-5.35450E+01 3.49580E-16-9.29100E+01
 -1        18-5.35450E+01-5.35450E+01-3.55271E-15
 -1        19-5.35450E+01 2.09291E-15 9.29100E+01
 -1        20-5.35450E+01 5.35450E+01 1.77636E-15
 -3
    1PSTEP                       145          29           1          
  100CL  129 30290.42084          20                     0   29           1
 -4  ERROR       1    1
 -5  STR(%)      1    1    0    0
 -1         1 7.30197E-15
 -1         2 7.30197E-15
 -1         3 7.30197E-15
 -1         4 7.30197E-15
 -1         5 7.30197E-15
 -1         6 7.30197E-15
 -1         7 7.30197E-15
 -1         8 7.30197E-15
 -1         9 7.30197E-15
 -1        10 7.30197E-15
 -1        11 7.30197E-15
 -1        12 7.30197E-15
 -1        13 7.30197E-15
 -1        14 7.30197E-15
 -1        15 7.30197E-15
 -1        16 7.30197E-15
 -1        17 7.30197E-15
 -1        18 7.30197E-15
 -1        19 7.30197E-15
 -1        20 7.30197E-15
 -3
    1PSTEP                       146          30           1          
  100CL  130 31763.15280          20                     0   30           1
 -4  DISP        4    1
 -5  D1          1    2    1    0
 -5  D2          1    2    2    0
 -5  D3          1    2    3    0
 -5  ALL         1    2    0    0    1ALL
 -1         1 0.00000E+00 0.00000E+00 0.00000E+00
 -1         2 0.00000E+00 0.00000E+00 0.00000E+00
 -1         3 0.00000E+00 0.00000E+00 2.00000E-03
 -1         4 0.00000E+00 0.00000E+00 2.00000E-03
 -1         5 0.00000E+00 0.00000E+00 0.00000E+00
 -1         6 0.00000E+00 0.00000E+00 0.00000E+00
 -1         7 0.00000E+00 0.00000E+00 2.00000E-03
 -1         8 0.00000E+00 0.00000E+00 2.00000E-03
 -1         9 0.00000E+00 0.00000E+00 0.00000E+00
 -1        10 0.00000E+00 0.00000E+00 1.00000E-03
 -1        11 0.00000E+00 0.00000E+00 2.00000E-03
 -1        12 0.00000E+00 0.00000E+00 1.00000E-03
 -1        13 0.00000E+00 0.00000E+00 0.00000E+00
 -1        14 0.00000E+00 0.00000E+00 0.00000E+00
 -1        15 0.00000E+00 0.00000E+00 2.00000E-03
 -1        16 0.00000E+00 0.00000E+00 2.00000E-03
 -1        17 0.00000E+00 0.00000E+00 0.00000E+00
 -1        18 0.00000E+00 0.00000E+00 1.00000E-03
 -1        19 0.00000E+00 0.00000E+00 2.00000E-03
 -1        20 0.00000E+00 0.00000E+00 1.00000E-03
 -3
    1PSTEP                       147          30           1          
  100CL  130 31763.15280          20                     0   30           1
 -4  STRESS      6    1
 -5  SXX         1    4    1    1
 -5  SYY         1    4    2    2
 -5  SZZ         1    4    3    3
 -5  SXY         1    4    1    2
 -5  SYZ         1    4    2    3
 -5  SZX         1    4    3    1
 -1         1 1.60860E+02 1.60860E+02 2.78256E+02 0.00000E+00 2.42164E-14 4.22092E-14
 -1         2 1.60860E+02 1.60860E+02 2.78256E+02 0.00000E+00-3.80868E-14-4.74701E-14
 -1         3 1.60860E+02 1.60860E+02 2.78256E+02 0.00000E+00-5.92363E-15-7.03521E-14
 -1         4 1.60860E+02 1.60860E+02 2.78256E+02 0.00000E+00-1.35516E-14 1.03390E-13
 -1         5 1.60860E+02 1.60860E+02 2.78256E+02 0.00000E+00 1.73845E-14-1.48643E-14
 -1         6 1.60860E+02 1.60860E+02 2.78256E+02 0.00000E+00-1.25534E-14 5.08817E-16
 -1         7 1.60860E+02 1.60860E+02 2.78256E+02 0.00000E+00 1.13425E-13 8.29481E-14
 -1         8 1.60860E+02 1.60860E+02 2.78256E+02 0.00000E+00-1.72281E-16-2.21009E-14
 -1         9 1.60875E+02 1.60875E+02 2.78281E+02 0.00000E+00-2.45833E-14-1.20096E-14
 -1        10 1.60875E+02 1.60875E+02 2.78281E+02 0.00000E+00 2.58517E-14 2.26140E-14
 -1        11 1.60875E+02 1.60875E+02 2.78281E+02 0.00000E+00 1.49448E-14 1.31349E-14
 -1        12 1.60875E+02 1.60875E+02 2.78281E+02 0.00000E+00 1.42098E-14 1.00837E-14
 -1        13 1.60875E+02 1.60875E+02 2.78281E+02 0.00000E+00-1.01025E-14-1.48740E-15
 -1        14 1.60875E+02 1.60875E+02 2.78281E+02 0.00000E+00 2.40763E-14 5.24853E-15
 -1        15 1.60875E+02 1.60875E+02 2.78281E+02 0.00000E+00-6.83013E-14 1.46321E-14
 -1        16 1.60875E+02 1.60875E+02 2.78281E+02 0.00000E+00 2.61305E-14 2.45361E-14
 -1        17 1.60875E+02 1.60875E+02 2.78281E+02 0.00000E+00-2.85702E-15 1.33547E-14
 -1        18 1.60875E+02 1.60875E+02 2.78281E+02 0.00000E+00 3.57771E-14-4.60888E-14
 -1        19 1.60875E+02 1.60875E+02 2.78281E+02 0.00000E+00 3.07050E-14-6.58095E-15
 -1        20 1.60875E+02 1.60875E+02 2.78281E+02 0.00000E+00 1.35275E-14 2.62365E-14
 -3
    1PSTEP                       148          30           1          
  100CL  130 31763.15280          20                     0   30           1
 -4  TOSTRAIN    6    1
 -5  EXX         1    4    1    1
 -5  EYY         1    4    2    2
 -5  EZZ         1    4    3    3
 -5  EXY         1    4    1    2
 -5  EYZ         1    4    2    3
 -5  EZX         1    4    3    1
 -1         1 0.00000E+00 0.00000E+00 1.99992E-03 0.00000E+00 4.12546E-19 7.19066E-19
 -1         2 0.00000E+00 0.00000E+00 1.99992E-03 0.00000E+00-6.48839E-19-8.08690E-19
 -1         3 0.00000E+00 0.00000E+00 1.99992E-03 0.00000E+00-1.00914E-19-1.19850E-18
 -1         4 0.00000E+00 0.00000E+00 1.99992E-03 0.00000E+00-2.30863E-19 1.76134E-18
 -1         5 0.00000E+00 0.00000E+00 1.99992E-03 0.00000E+00 2.96159E-19-2.53224E-19
 -1         6 0.00000E+00 0.00000E+00 1.99992E-03 0.00000E+00-2.13856E-19 8.66809E-21
 -1         7 0.00000E+00 0.00000E+00 1.99992E-03 0.00000E+00 1.93228E-18 1.41309E-18
 -1         8 0.00000E+00 0.00000E+00 1.99992E-03 0.00000E+00-2.93494E-21-3.76507E-19
 -1         9 0.00000E+00 0.00000E+00 2.00010E-03 0.00000E+00-4.18795E-19-2.04593E-19
 -1        10 0.00000E+00 0.00000E+00 2.00010E-03 0.00000E+00 4.40404E-19 3.85247E-19
 -1        11 0.00000E+00 0.00000E+00 2.00010E-03 0.00000E+00 2.54597E-19 2.23763E-19
 -1        12 0.00000E+00 0.00000E+00 2.00010E-03 0.00000E+00 2.42075E-19 1.71784E-19
 -1        13 0.00000E+00 0.00000E+00 2.00010E-03 0.00000E+00-1.72104E-19-2.53389E-20
 -1        14 0.00000E+00 0.00000E+00 2.00010E-03 0.00000E+00 4.10158E-19 8.94127E-20
 -1        15 0.00000E+00 0.00000E+00 2.00010E-03 0.00000E+00-1.16356E-18 2.49269E-19
 -1        16 0.00000E+00 0.00000E+00 2.00010E-03 0.00000E+00 4.45153E-19 4.17991E-19
 -1        17 0.00000E+00 0.00000E+00 2.00010E-03 0.00000E+00-4.86716E-20 2.27507E-19
 -1        18 0.00000E+00 0.00000E+00 2.00010E-03 0.00000E+00 6.09490E-19-7.85158E-19
 -1        19 0.00000E+00 0.00000E+00 2.00010E-03 0.00000E+00 5.23083E-19-1.12112E-19
 -1        20 0.00000E+00 0.00000E+00 2.00010E-03 0.00000E+00 2.30452E-19 4.46960E-19
 -3
    1PSTEP                       149          30           1          
  100CL  130 31763.15280          20                     0   30           1
 -4  FORC        4    1
 -5  F1          1    2    1    0
 -5  F2          1    2    2    0
 -5  F3          1    2    3    0
 -5  ALL         1    2    0    0    1ALL
 -1         1-1.34056E+01-1.34056E+01 2.31889E+01
 -1         2-1.34056E+01 1.34056E+01 2.31889E+01
 -1         3-1.34056E+01 1.34056E+01-2.31889E+01
 -1         4-1.34056E+01-1.34056E+01-2.31889E+01
 -1         5 1.34056E+01-1.34056E+01 2.31889E+01
 -1         6 1.34056E+01 1.34056E+01 2.31889E+01
 -1         7 1.34056E+01 1.34056E+01-2.31889E+01
 -1         8 1.34056E+01-1.34056E+01-2.31889E+01
 -1         9 5.36222E+01-5.14700E-15-9.27556E+01
 -1        10 5.36222E+01-5.36222E+01 2.44249E-15
 -1        11 5.36222E+01 2.48246E-15 9.27556E+01
 -1        12 5.36222E+01 5.36222E+01 1.97065E-14
 -1        13-9.99117E-16 5.36222E+01-9.27556E+01
 -1        14 1.31048E-14-5.36222E+01-9.27556E+01
 -1        15 3.77058E-15-5.36222E+01 9.27556E+01
 -1        16 6.46697E-15 5.36222E+01 9.27556E+01
 -1        17-5.36222E+01-5.36735E-16-9.27556E+01
 -1        18-5.36222E+01-5.36222E+01 0.00000E+00
 -1        19-5.36222E+01 3.14691E-16 9.27556E+01
 -1        20-5.36222E+01 5.36222E+01 1.11022E-15
 -3
    1PSTEP                       150          30           1          
  100CL  130 31763.15280          20                     0   30           1
 -4  ERROR       1    1
 -5  STR(%)      1    1    0    0
 -1         1 1.14936E-14
 -1         2 1.14936E-14
 -1         3 1.14936E-14
 -1         4 1.14936E-14
 -1         5 1.14936E-14
 -1         6 1.14936E-14
 -1         7 1.14936E-14
 -1         8 1.14936E-14
 -1         9 1.14936E-14
 -1        10 1.14936E-14
 -1        11 1.14936E-14
 -1        12 1.14936E-14
 -1        13 1.14936E-14
 -1        14 1.14936E-14
 -1        15 1.14936E-14
 -1        16 1.14936E-14
 -1        17 1.14936E-14
 -1        18 1.14936E-14
 -1        19 1.14936E-14
 -1        20 1.14936E-14
 -3
    1PSTEP                       151          31           1          
  100CL  131 33235.88477          20                     0   31           1
 -4  DISP        4    1
 -5  D1          1    2    1    0
 -5  D2          1    2    2    0
 -5  D3          1    2    3    0
 -5  ALL         1    2    0    0    1ALL
 -1         1 0.00000E+00 0.00000E+00 0.00000E+00
 -1         2 0.00000E+00 0.00000E+00 0.00000E+00
 -1         3 0.00000E+00 0.00000E+00 2.00000E-03
 -1         4 0.00000E+00 0.00000E+00 2.00000E-03
 -1         5 0.00000E+00 0.00000E+00 0.00000E+00
 -1         6 0.00000E+00 0.00000E+00 0.00000E+00
 -1         7 0.00000E+00 0.00000E+00 2.00000E-03
 -1         8 0.00000E+00 0.00000E+00 2.00000E-03
 -1         9 0.00000E+00 0.00000E+00 0.00000E+00
 -1        10 0.00000E+00 0.00000E+00 1.00000E-03
 -1        11 0.00000E+00 0.00000E+00 2.00000E-03
 -1        12 0.00000E+00 0.00000E+00 1.00000E-03
 -1        13 0.00000E+00 0.00000E+00 0.00000E+00
 -1        14 0.00000E+00 0.00000E+00 0.00000E+00
 -1        15 0.00000E+00 0.00000E+00 2.00000E-03
 -1        16 0.00000E+00 0.00000E+00 2.00000E-03
 -1        17 0.00000E+00 0.00000E+00 0.00000E+00
 -1        18 0.00000E+00 0.00000E+00 1.00000E-03
 -1        19 0.00000E+00 0.00000E+00 2.00000E-03
 -1        20 0.00000E+00 0.00000E+00 1.00000E-03
 -3
    1PSTEP                       152          31           1          
  100CL  131 33235.88477          20                     0   31           1
 -4  STRESS      6    1
 -5  SXX         1    4    1    1
 -5  SYY         1    4    2    2
 -5  SZZ         1    4    3    3
 -5  SXY         1    4    1    2
 -5  SYZ         1    4    2    3
 -5  SZX         1    4    3    1
 -1         1 1.61091E+02 1.61091E+02 2.77795E+02 0.00000E+00 2.40739E-14 4.19608E-14
 -1         2 1.61091E+02 1.61091E+02 2.77795E+02 0.00000E+00-3.78627E-14-4.71907E-14
 -1         3 1.61091E+02 1.61091E+02 2.77795E+02 0.00000E+00-5.88877E-15-6.99381E-14
 -1         4 1.61091E+02 1.61091E+02 2.77795E+02 0.00000E+00-1.34719E-14 1.02782E-13
 -1         5 1.61091E+02 1.61091E+02 2.77795E+02 0.00000E+00 1.72822E-14-1.47768E-14
 -1         6 1.61091E+02 1.61091E+02 2.77795E+02 0.00000E+00-1.24795E-14 5.05823E-16
 -1         7 1.61091E+02 1.61091E+02 2.77795E+02 0.00000E+00 1.12758E-13 8.24600E-14
 -1         8 1.61091E+02 1.61091E+02 2.77795E+02 0.00000E+00-1.71267E-16-2.19709E-14
 -1         9 1.61105E+02 1.61105E+02 2.77820E+02 0.00000E+00-2.44386E-14-1.19389E-14
 -1        10 1.61105E+02 1.61105E+02 2.77820E+02 0.00000E+00 2.56996E-14 2.24809E-14
 -1        11 1.61105E+02 1.61105E+02 2.77820E+02 0.00000E+00 1.48569E-14 1.30576E-14
 -1        12 1.61105E+02 1.61105E+02 2.77820E+02 0.00000E+00 1.41262E-14 1.00244E-14
 -1        13 1.61105E+02 1.61105E+02 2.77820E+02 0.00000E+00-1.00431E-14-1.47864E-15
 -1        14 1.61105E+02 1.61105E+02 2.77820E+02 0.00000E+00 2.39346E-14 5.21764E-15
 -1        15 1.61105E+02 1.61105E+02 2.77820E+02 0.00000E+00-6.78993E-14 1.45460E-14
 -1        16 1.61105E+02 1.61105E+02 2.77820E+02 0.00000E+00 2.59767E-14 2.43917E-14
 -1        17 1.61105E+02 1.61105E+02 2.77820E+02 0.00000E+00-2.84021E-15 1.32761E-14
 -1        18 1.61105E+02 1.61105E+02 2.77820E+02 0.00000E+00 3.55665E-14-4.58176E-14
 -1        19 1.61105E+02 1.61105E+02 2.77820E+02 0.00000E+00 3.05243E-14-6.54223E-15
 -1        20 1.61105E+02 1.61105E+02 2.77820E+02 0.00000E+00 1.34479E-14 2.60821E-14
 -3
    1PSTEP                       153          31           1          
  100CL  131 33235.88477          20                     0   31           1
 -4  TOSTRAIN    6    1
 -5  EXX         1    4    1    1
 -5  EYY         1    4    2    2
 -5  EZZ         1    4    3    3
 -5  EXY         1    4    1    2
 -5  EYZ         1    4    2    3
 -5  EZX         1    4    3    1
 -1         1 0.00000E+00 0.00000E+00 1.99992E-03 0.00000E+00 4.12546E-19 7.19066E-19
 -1         2 0.00000E+00 0.00000E+00 1.99992E-03 0.00000E+00-6.48839E-19-8.08690E-19
 -1         3 0.00000E+00 0.00000E+00 1.99992E-03 0.00000E+00-1.00914E-19-1.19850E-18
 -1         4 0.00000E+00 0.00000E+00 1.99992E-03 0.00000E+00-2.30863E-19 1.76134E-18
 -1         5 0.00000E+00 0.00000E+00 1.99992E-03 0.00000E+00 2.96159E-19-2.53224E-19
 -1         6 0.00000E+00 0.00000E+00 1.99992E-03 0.00000E+00-2.13856E-19 8.66809E-21
 -1         7 0.00000E+00 0.00000E+00 1.99992E-03 0.00000E+00 1.93228E-18 1.41309E-18
 -1         8 0.00000E+00 0.00000E+00 1.99992E-03 0.00000E+00-2.93494E-21-3.76507E-19
 -1         9 0.00000E+00 0.00000E+00 2.00010E-03 0.00000E+00-4.18795E-19-2.04593E-19
 -1        10 0.00000E+00 0.00000E+00 2.00010E-03 0.00000E+00 4.40404E-19 3.85247E-19
 -1        11 0.00000E+00 0.00000E+00 2.00010E-03 0.00000E+00 2.54597E-19 2.23763E-19
 -1        12 0.00000E+00 0.00000E+00 2.00010E-03 0.00000E+00 2.42075E-19 1.71784E-19
 -1        13 0.00000E+00 0.00000E+00 2.00010E-03 0.00000E+00-1.72104E-19-2.53389E-20
 -1        14 0.00000E+00 0.00000E+00 2.00010E-03 0.00000E+00 4.10158E-19 8.94127E-20
 -1        15 0.00000E+00 0.00000E+00 2.00010E-03 0.00000E+00-1.16356E-18 2.49269E-19
 -1        16 0.00000E+00 0.00000E+00 2.00010E-03 0.00000E+00 4.45153E-19 4.17991E-19
 -1        17 0.00000E+00 0.00000E+00 2.00010E-03 0.00000E+00-4.86716E-20 2.27507E-19
 -1        18 0.00000E+00 0.00000E+00 2.00010E-03 0.00000E+00 6.09490E-19-7.85158E-19
 -1        19 0.00000E+00 0.00000E+00 2.00010E-03 0.00000E+00 5.23083E-19-1.12112E-19
 -1        20 0.00000E+00 0.00000E+00 2.00010E-03 0.00000E+00 2.30452E-19 4.46960E-19
 -3
    1PSTEP                       154          31           1          
  100CL  131 33235.88477          20                     0   31           1
 -4  FORC        4    1
 -5  F1          1    2    1    0
 -5  F2          1    2    2    0
 -5  F3          1    2    3    0
 -5  ALL         1    2    0    0    1ALL
 -1         1-1.34247E+01-1.34247E+01 2.31505E+01
 -1         2-1.34247E+01 1.34247E+01 2.31505E+01
 -1         3-1.34247E+01 1.34247E+01-2.31505E+01
 -1         4-1.34247E+01-1.34247E+01-2.31505E+01
 -1         5 1.34247E+01-1.34247E+01 2.31505E+01
 -1         6 1.34247E+01 1.34247E+01 2.31505E+01
 -1         7 1.34247E+01 1.34247E+01-2.31505E+01
 -1         8 1.34247E+01-1.34247E+01-2.31505E+01
 -1         9 5.36990E+01-6.89536E-15-9.26020E+01
 -1        10 5.36990E+01-5.36990E+01 6.21725E-15
 -1        11 5.36990E+01 6.92312E-15 9.26020E+01
 -1        12 5.36990E+01 5.36990E+01 2.53964E-14
 -1        13-1.13773E-15 5.36990E+01-9.26020E+01
 -1        14 8.22111E-15-5.36990E+01-9.26020E+01
 -1        15-3.33613E-15-5.36990E+01 9.26020E+01
 -1        16-8.60669E-16 5.36990E+01 9.26020E+01
 -1        17-5.36990E+01-5.34883E-16-9.26020E+01
 -1        18-5.36990E+01-5.36990E+01 0.00000E+00
 -1        19-5.36990E+01 2.08920E-15 9.26020E+01
 -1        20-5.36990E+01 5.36990E+01 4.44089E-15
 -3
    1PSTEP                       155          31           1          
  100CL  131 33235.88477          20                     0   31           1
 -4  ERROR       1    1
 -5  STR(%)      1    1    0    0
 -1         1 1.77923E-14
 -1         2 1.77923E-14
 -1         3 1.77923E-14
 -1         4 1.77923E-14
 -1         5 1.77923E-14
 -1         6 1.77923E-14
 -1         7 1.77923E-14
 -1         8 1.77923E-14
 -1         9 1.77923E-14
 -1        10 1.77923E-14
 -1        11 1.77923E-14
 -1        12 1.77923E-14
 -1        13 1.77923E-14
 -1        14 1.77923E-14
 -1        15 1.77923E-14
 -1        16 1.77923E-14
 -1        17 1.77923E-14
 -1        18 1.77923E-14
 -1        19 1.77923E-14
 -1        20 1.77923E-14
 -3
    1PSTEP                       156          32           1          
  100CL  132 35444.98272          20                     0   32           1
 -4  DISP        4    1
 -5  D1          1    2    1    0
 -5  D2          1    2    2    0
 -5  D3          1    2    3    0
 -5  ALL         1    2    0    0    1ALL
 -1         1 0.00000E+00 0.00000E+00 0.00000E+00
 -1         2 0.00000E+00 0.00000E+00 0.00000E+00
 -1         3 0.00000E+00 0.00000E+00 2.00000E-03
 -1         4 0.00000E+00 0.00000E+00 2.00000E-03
 -1         5 0.00000E+00 0.00000E+00 0.00000E+00
 -1         6 0.00000E+00 0.00000E+00 0.00000E+00
 -1         7 0.00000E+00 0.00000E+00 2.00000E-03
 -1         8 0.00000E+00 0.00000E+00 2.00000E-03
 -1         9 0.00000E+00 0.00000E+00 0.00000E+00
 -1        10 0.00000E+00 0.00000E+00 1.00000E-03
 -1        11 0.00000E+00 0.00000E+00 2.00000E-03
 -1        12 0.00000E+00 0.00000E+00 1.00000E-03
 -1        13 0.00000E+00 0.00000E+00 0.00000E+00
 -1        14 0.00000E+00 0.00000E+00 0.00000E+00
 -1        15 0.00000E+00 0.00000E+00 2.00000E-03
 -1        16 0.00000E+00 0.00000E+00 2.00000E-03
 -1        17 0.00000E+00 0.00000E+00 0.00000E+00
 -1        18 0.00000E+00 0.00000E+00 1.00000E-03
 -1        19 0.00000E+00 0.00000E+00 2.00000E-03
 -1        20 0.00000E+00 0.00000E+00 1.00000E-03
 -3
    1PSTEP                       157          32           1          
  100CL  132 35444.98272          20                     0   32           1
 -4  STRESS      6    1
 -5  SXX         1    4    1    1
 -5  SYY         1    4    2    2
 -5  SZZ         1    4    3    3
 -5  SXY         1    4    1    2
 -5  SYZ         1    4    2    3
 -5  SZX         1    4    3    1
 -1         1 1.61433E+02 1.61433E+02 2.77110E+02 0.00000E+00 2.38621E-14 4.15915E-14
 -1         2 1.61433E+02 1.61433E+02 2.77110E+02 0.00000E+00-3.75295E-14-4.67754E-14
 -1         3 1.61433E+02 1.61433E+02 2.77110E+02 0.00000E+00-5.83695E-15-6.93225E-14
 -1         4 1.61433E+02 1.61433E+02 2.77110E+02 0.00000E+00-1.33533E-14 1.01877E-13
 -1         5 1.61433E+02 1.61433E+02 2.77110E+02 0.00000E+00 1.71301E-14-1.46467E-14
 -1         6 1.61433E+02 1.61433E+02 2.77110E+02 0.00000E+00-1.23697E-14 5.01371E-16
 -1         7 1.61433E+02 1.61433E+02 2.77110E+02 0.00000E+00 1.11765E-13 8.17343E-14
 -1         8 1.61433E+02 1.61433E+02 2.77110E+02 0.00000E+00-1.69760E-16-2.17775E-14
 -1         9 1.61447E+02 1.61447E+02 2.77135E+02 0.00000E+00-2.42235E-14-1.18339E-14
 -1        10 1.61447E+02 1.61447E+02 2.77135E+02 0.00000E+00 2.54734E-14 2.22831E-14
 -1        11 1.61447E+02 1.61447E+02 2.77135E+02 0.00000E+00 1.47261E-14 1.29427E-14
 -1        12 1.61447E+02 1.61447E+02 2.77135E+02 0.00000E+00 1.40018E-14 9.93618E-15
 -1        13 1.61447E+02 1.61447E+02 2.77135E+02 0.00000E+00-9.95467E-15-1.46563E-15
 -1        14 1.61447E+02 1.61447E+02 2.77135E+02 0.00000E+00 2.37240E-14 5.17172E-15
 -1        15 1.61447E+02 1.61447E+02 2.77135E+02 0.00000E+00-6.73017E-14 1.44180E-14
 -1        16 1.61447E+02 1.61447E+02 2.77135E+02 0.00000E+00 2.57481E-14 2.41770E-14
 -1        17 1.61447E+02 1.61447E+02 2.77135E+02 0.00000E+00-2.81521E-15 1.31592E-14
 -1        18 1.61447E+02 1.61447E+02 2.77135E+02 0.00000E+00 3.52535E-14-4.54143E-14
 -1        19 1.61447E+02 1.61447E+02 2.77135E+02 0.00000E+00 3.02556E-14-6.48465E-15
 -1        20 1.61447E+02 1.61447E+02 2.77135E+02 0.00000E+00 1.33295E-14 2.58526E-14
 -3
    1PSTEP                       158          32           1          
  100CL  132 35444.98272          20                     0   32           1
 -4  TOSTRAIN    6    1
 -5  EXX         1    4    1    1
 -5  EYY         1    4    2    2
 -5  EZZ         1    4    3    3
 -5  EXY         1    4    1    2
 -5  EYZ         1    4    2    3
 -5  EZX         1    4    3    1
 -1         1 0.00000E+00 0.00000E+00 1.99992E-03 0.00000E+00 4.12546E-19 7.19066E-19
 -1         2 0.00000E+00 0.00000E+00 1.99992E-03 0.00000E+00-6.48839E-19-8.08690E-19
 -1         3 0.00000E+00 0.00000E+00 1.99992E-03 0.00000E+00-1.00914E-19-1.19850E-18
 -1         4 0.00000E+00 0.00000E+00 1.99992E-03 0.00000E+00-2.30863E-19 1.76134E-18
 -1         5 0.00000E+00 0.00000E+00 1.99992E-03 0.00000E+00 2.96159E-19-2.53224E-19
 -1         6 0.00000E+00 0.00000E+00 1.99992E-03 0.00000E+00-2.13856E-19 8.66809E-21
 -1         7 0.00000E+00 0.00000E+00 1.99992E-03 0.00000E+00 1.93228E-18 1.41309E-18
 -1         8 0.00000E+00 0.00000E+00 1.99992E-03 0.00000E+00-2.93494E-21-3.76507E-19
 -1         9 0.00000E+00 0.00000E+00 2.00010E-03 0.00000E+00-4.18795E-19-2.04593E-19
 -1        10 0.00000E+00 0.00000E+00 2.00010E-03 0.00000E+00 4.40404E-19 3.85247E-19
 -1        11 0.00000E+00 0.00000E+00 2.00010E-03 0.00000E+00 2.54597E-19 2.23763E-19
 -1        12 0.00000E+00 0.00000E+00 2.00010E-03 0.00000E+00 2.42075E-19 1.71784E-19
 -1        13 0.00000E+00 0.00000E+00 2.00010E-03 0.00000E+00-1.72104E-19-2.53389E-20
 -1        14 0.00000E+00 0.00000E+00 2.00010E-03 0.00000E+00 4.10158E-19 8.94127E-20
 -1        15 0.00000E+00 0.00000E+00 2.00010E-03 0.00000E+00-1.16356E-18 2.49269E-19
 -1        16 0.00000E+00 0.00000E+00 2.00010E-03 0.00000E+00 4.45153E-19 4.17991E-19
 -1        17 0.00000E+00 0.00000E+00 2.00010E-03 0.00000E+00-4.86716E-20 2.27507E-19
 -1        18 0.00000E+00 0.00000E+00 2.00010E-03 0.00000E+00 6.09490E-19-7.85158E-19
 -1        19 0.00000E+00 0.00000E+00 2.00010E-03 0.00000E+00 5.23083E-19-1.12112E-19
 -1        20 0.00000E+00 0.00000E+00 2.00010E-03 0.00000E+00 2.30452E-19 4.46960E-19
 -3
    1PSTEP                       159          32           1          
  100CL  132 35444.98272          20                     0   32           1
 -4  FORC        4    1
 -5  F1          1    2    1    0
 -5  F2          1    2    2    0
 -5  F3          1    2    3    0
 -5  ALL         1    2    0    0    1ALL
 -1         1-1.34533E+01-1.34533E+01 2.30934E+01
 -1         2-1.34533E+01 1.34533E+01 2.30934E+01
 -1         3-1.34533E+01 1.34533E+01-2.30934E+01
 -1         4-1.34533E+01-1.34533E+01-2.30934E+01
 -1         5 1.34533E+01-1.34533E+01 2.30934E+01
 -1         6 1.34533E+01 1.34533E+01 2.30934E+01
 -1         7 1.34533E+01 1.34533E+01-2.30934E+01
 -1         8 1.34533E+01-1.34533E+01-2.30934E+01
 -1         9 5.38131E+01-7.69993E-15-9.23738E+01
 -1        10 5.38131E+01-5.38131E+01 7.10543E-15
 -1        11 5.38131E+01 7.14481E-15 9.23738E+01
 -1        12 5.38131E+01 5.38131E+01 2.07889E-14
 -1        13-2.69180E-15 5.38131E+01-9.23738E+01
 -1        14 1.02214E-14-5.38131E+01-9.23738E+01
 -1        15-3.33804E-15-5.38131E+01 9.23738E+01
 -1        16-7.52225E-15 5.38131E+01 9.23738E+01
 -1        17-5.38131E+01 3.56048E-16-9.23738E+01
 -1        18-5.38131E+01-5.38131E+01 1.77636E-15
 -1        19-5.38131E+01 3.86280E-15 9.23738E+01
 -1        20-5.38131E+01 5.38131E+01 7.77156E-15
 -3
    1PSTEP                       160          32           1          
  100CL  132 35444.98272          20                     0   32           1
 -4  ERROR       1    1
 -5  STR(%)      1    1    0    0
 -1         1 1.04919E-14
 -1         2 1.04919E-14
 -1         3 1.04919E-14
 -1         4 1.04919E-14
 -1         5 1.04919E-14
 -1         6 1.04919E-14
 -1         7 1.04919E-14
 -1         8 1.04919E-14
 -1         9 1.04919E-14
 -1        10 1.04919E-14
 -1        11 1.04919E-14
 -1        12 1.04919E-14
 -1        13 1.04919E-14
 -1        14 1.04919E-14
 -1        15 1.04919E-14
 -1        16 1.04919E-14
 -1        17 1.04919E-14
 -1        18 1.04919E-14
 -1        19 1.04919E-14
 -1        20 1.04919E-14
 -3
    1PSTEP                       161          33           1          
  100CL  133 36835.80202          20                     0   33           1
 -4  DISP        4    1
 -5  D1          1    2    1    0
 -5  D2          1    2    2    0
 -5  D3          1    2    3    0
 -5  ALL         1    2    0    0    1ALL
 -1         1 0.00000E+00 0.00000E+00 0.00000E+00
 -1         2 0.00000E+00 0.00000E+00 0.00000E+00
 -1         3 0.00000E+00 0.00000E+00 2.00000E-03
 -1         4 0.00000E+00 0.00000E+00 2.00000E-03
 -1         5 0.00000E+00 0.00000E+00 0.00000E+00
 -1         6 0.00000E+00 0.00000E+00 0.00000E+00
 -1         7 0.00000E+00 0.00000E+00 2.00000E-03
 -1         8 0.00000E+00 0.00000E+00 2.00000E-03
 -1         9 0.00000E+00 0.00000E+00 0.00000E+00
 -1        10 0.00000E+00 0.00000E+00 1.00000E-03
 -1        11 0.00000E+00 0.00000E+00 2.00000E-03
 -1        12 0.00000E+00 0.00000E+00 1.00000E-03
 -1        13 0.00000E+00 0.00000E+00 0.00000E+00
 -1        14 0.00000E+00 0.00000E+00 0.00000E+00
 -1        15 0.00000E+00 0.00000E+00 2.00000E-03
 -1        16 0.00000E+00 0.00000E+00 2.00000E-03
 -1        17 0.00000E+00 0.00000E+00 0.00000E+00
 -1        18 0.00000E+00 0.00000E+00 1.00000E-03
 -1        19 0.00000E+00 0.00000E+00 2.00000E-03
 -1        20 0.00000E+00 0.00000E+00 1.00000E-03
 -3
    1PSTEP                       162          33           1          
  100CL  133 36835.80202          20                     0   33           1
 -4  STRESS      6    1
 -5  SXX         1    4    1    1
 -5  SYY         1    4    2    2
 -5  SZZ         1    4    3    3
 -5  SXY         1    4    1    2
 -5  SYZ         1    4    2    3
 -5  SZX         1    4    3    1
 -1         1 1.61647E+02 1.61647E+02 2.76682E+02 0.00000E+00 2.37294E-14 4.13603E-14
 -1         2 1.61647E+02 1.61647E+02 2.76682E+02 0.00000E+00-3.73208E-14-4.65154E-14
 -1         3 1.61647E+02 1.61647E+02 2.76682E+02 0.00000E+00-5.80450E-15-6.89371E-14
 -1         4 1.61647E+02 1.61647E+02 2.76682E+02 0.00000E+00-1.32791E-14 1.01311E-13
 -1         5 1.61647E+02 1.61647E+02 2.76682E+02 0.00000E+00 1.70349E-14-1.45653E-14
 -1         6 1.61647E+02 1.61647E+02 2.76682E+02 0.00000E+00-1.23009E-14 4.98584E-16
 -1         7 1.61647E+02 1.61647E+02 2.76682E+02 0.00000E+00 1.11144E-13 8.12799E-14
 -1         8 1.61647E+02 1.61647E+02 2.76682E+02 0.00000E+00-1.68816E-16-2.16565E-14
 -1         9 1.61662E+02 1.61662E+02 2.76706E+02 0.00000E+00-2.40889E-14-1.17681E-14
 -1        10 1.61662E+02 1.61662E+02 2.76706E+02 0.00000E+00 2.53318E-14 2.21592E-14
 -1        11 1.61662E+02 1.61662E+02 2.76706E+02 0.00000E+00 1.46442E-14 1.28707E-14
 -1        12 1.61662E+02 1.61662E+02 2.76706E+02 0.00000E+00 1.39240E-14 9.88095E-15
 -1        13 1.61662E+02 1.61662E+02 2.76706E+02 0.00000E+00-9.89933E-15-1.45748E-15
 -1        14 1.61662E+02 1.61662E+02 2.76706E+02 0.00000E+00 2.35921E-14 5.14297E-15
 -1        15 1.61662E+02 1.61662E+02 2.76706E+02 0.00000E+00-6.69276E-14 1.43378E-14
 -1        16 1.61662E+02 1.61662E+02 2.76706E+02 0.00000E+00 2.56050E-14 2.40426E-14
 -1        17 1.61662E+02 1.61662E+02 2.76706E+02 0.00000E+00-2.79956E-15 1.30861E-14
 -1        18 1.61662E+02 1.61662E+02 2.76706E+02 0.00000E+00 3.50575E-14-4.51619E-14
 -1        19 1.61662E+02 1.61662E+02 2.76706E+02 0.00000E+00 3.00874E-14-6.44860E-15
 -1        20 1.61662E+02 1.61662E+02 2.76706E+02 0.00000E+00 1.32554E-14 2.57089E-14
 -3
    1PSTEP                       163          33           1          
  100CL  133 36835.80202          20                     0   33           1
 -4  TOSTRAIN    6    1
 -5  EXX         1    4    1    1
 -5  EYY         1    4    2    2
 -5  EZZ         1    4    3    3
 -5  EXY         1    4    1    2
 -5  EYZ         1    4    2    3
 -5  EZX         1    4    3    1
 -1         1 0.00000E+00 0.00000E+00 1.99992E-03 0.00000E+00 4.12546E-19 7.19066E-19
 -1         2 0.00000E+00 0.00000E+00 1.99992E-03 0.00000E+00-6.48839E-19-8.08690E-19
 -1         3 0.00000E+00 0.00000E+00 1.99992E-03 0.00000E+00-1.00914E-19-1.19850E-18
 -1         4 0.00000E+00 0.00000E+00 1.99992E-03 0.00000E+00-2.30863E-19 1.76134E-18
 -1         5 0.00000E+00 0.00000E+00 1.99992E-03 0.00000E+00 2.96159E-19-2.53224E-19
 -1         6 0.00000E+00 0.00000E+00 1.99992E-03 0.00000E+00-2.13856E-19 8.66809E-21
 -1         7 0.00000E+00 0.00000E+00 1.99992E-03 0.00000E+00 1.93228E-18 1.41309E-18
 -1         8 0.00000E+00 0.00000E+00 1.99992E-03 0.00000E+00-2.93494E-21-3.76507E-19
 -1         9 0.00000E+00 0.00000E+00 2.00010E-03 0.00000E+00-4.18795E-19-2.04593E-19
 -1        10 0.00000E+00 0.00000E+00 2.00010E-03 0.00000E+00 4.40404E-19 3.85247E-19
 -1        11 0.00000E+00 0.00000E+00 2.00010E-03 0.00000E+00 2.54597E-19 2.23763E-19
 -1        12 0.00000E+00 0.00000E+00 2.00010E-03 0.00000E+00 2.42075E-19 1.71784E-19
 -1        13 0.00000E+00 0.00000E+00 2.00010E-03 0.00000E+00-1.72104E-19-2.53389E-20
 -1        14 0.00000E+00 0.00000E+00 2.00010E-03 0.00000E+00 4.10158E-19 8.94127E-20
 -1        15 0.00000E+00 0.00000E+00 2.00010E-03 0.00000E+00-1.16356E-18 2.49269E-19
 -1        16 0.00000E+00 0.00000E+00 2.00010E-03 0.00000E+00 4.45153E-19 4.17991E-19
 -1        17 0.00000E+00 0.00000E+00 2.00010E-03 0.00000E+00-4.86716E-20 2.27507E-19
 -1        18 0.00000E+00 0.00000E+00 2.00010E-03 0.00000E+00 6.09490E-19-7.85158E-19
 -1        19 0.00000E+00 0.00000E+00 2.00010E-03 0.00000E+00 5.23083E-19-1.12112E-19
 -1        20 0.00000E+00 0.00000E+00 2.00010E-03 0.00000E+00 2.30452E-19 4.46960E-19
 -3
    1PSTEP                       164          33           1          
  100CL  133 36835.80202          20                     0   33           1
 -4  FORC        4    1
 -5  F1          1    2    1    0
 -5  F2          1    2    2    0
 -5  F3          1    2    3    0
 -5  ALL         1    2    0    0    1ALL
 -1         1-1.34711E+01-1.34711E+01 2.30577E+01
 -1         2-1.34711E+01 1.34711E+01 2.30577E+01
 -1         3-1.34711E+01 1.34711E+01-2.30577E+01
 -1         4-1.34711E+01-1.34711E+01-2.30577E+01
 -1         5 1.34711E+01-1.34711E+01 2.30577E+01
 -1         6 1.34711E+01 1.34711E+01 2.30577E+01
 -1         7 1.34711E+01 1.34711E+01-2.30577E+01
 -1         8 1.34711E+01-1.34711E+01-2.30577E+01
 -1         9 5.38846E+01-6.92255E-15-9.22309E+01
 -1        10 5.38846E+01-5.38846E+01 1.33227E-15
 -1        11 5.38846E+01 3.36984E-15 9.22309E+01
 -1        12 5.38846E+01 5.38846E+01 1.71807E-14
 -1        13-1.03522E-14 5.38846E+01-9.22309E+01
 -1        14 9.33444E-15-5.38846E+01-9.22309E+01
 -1        15 1.98984E-15-5.38846E+01 9.22309E+01
 -1        16 4.46801E-15 5.38846E+01 9.22309E+01
 -1        17-5.38846E+01-5.30406E-16-9.22309E+01
 -1        18-5.38846E+01-5.38846E+01-3.55271E-15
 -1        19-5.38846E+01-1.46800E-15 9.22309E+01
 -1        20-5.38846E+01 5.38846E+01-6.66134E-16
 -3
    1PSTEP                       165          33           1          
  100CL  133 36835.80202          20                     0   33           1
 -4  ERROR       1    1
 -5  STR(%)      1    1    0    0
 -1         1 1.15590E-14
 -1         2 1.15590E-14
 -1         3 1.15590E-14
 -1         4 1.15590E-14
 -1         5 1.15590E-14
 -1         6 1.15590E-14
 -1         7 1.15590E-14
 -1         8 1.15590E-14
 -1         9 1.15590E-14
 -1        10 1.15590E-14
 -1        11 1.15590E-14
 -1        12 1.15590E-14
 -1        13 1.15590E-14
 -1        14 1.15590E-14
 -1        15 1.15590E-14
 -1        16 1.15590E-14
 -1        17 1.15590E-14
 -1        18 1.15590E-14
 -1        19 1.15590E-14
 -1        20 1.15590E-14
 -3
    1PSTEP                       166          34           1          
  100CL  134 38226.62131          20                     0   34           1
 -4  DISP        4    1
 -5  D1          1    2    1    0
 -5  D2          1    2    2    0
 -5  D3          1    2    3    0
 -5  ALL         1    2    0    0    1ALL
 -1         1 0.00000E+00 0.00000E+00 0.00000E+00
 -1         2 0.00000E+00 0.00000E+00 0.00000E+00
 -1         3 0.00000E+00 0.00000E+00 2.00000E-03
 -1         4 0.00000E+00 0.00000E+00 2.00000E-03
 -1         5 0.00000E+00 0.00000E+00 0.00000E+00
 -1         6 0.00000E+00 0.00000E+00 0.00000E+00
 -1         7 0.00000E+00 0.00000E+00 2.00000E-03
 -1         8 0.00000E+00 0.00000E+00 2.00000E-03
 -1         9 0.00000E+00 0.00000E+00 0.00000E+00
 -1        10 0.00000E+00 0.00000E+00 1.00000E-03
 -1        11 0.00000E+00 0.00000E+00 2.00000E-03
 -1        12 0.00000E+00 0.00000E+00 1.00000E-03
 -1        13 0.00000E+00 0.00000E+00 0.00000E+00
 -1        14 0.00000E+00 0.00000E+00 0.00000E+00
 -1        15 0.00000E+00 0.00000E+00 2.00000E-03
 -1        16 0.00000E+00 0.00000E+00 2.00000E-03
 -1        17 0.00000E+00 0.00000E+00 0.00000E+00
 -1        18 0.00000E+00 0.00000E+00 1.00000E-03
 -1        19 0.00000E+00 0.00000E+00 2.00000E-03
 -1        20 0.00000E+00 0.00000E+00 1.00000E-03
 -3
    1PSTEP                       167          34           1          
  100CL  134 38226.62131          20                     0   34           1
 -4  STRESS      6    1
 -5  SXX         1    4    1    1
 -5  SYY         1    4    2    2
 -5  SZZ         1    4    3    3
 -5  SXY         1    4    1    2
 -5  SYZ         1    4    2    3
 -5  SZX         1    4    3    1
 -1         1 1.61860E+02 1.61860E+02 2.76255E+02 0.00000E+00 2.35975E-14 4.11303E-14
 -1         2 1.61860E+02 1.61860E+02 2.76255E+02 0.00000E+00-3.71134E-14-4.62568E-14
 -1         3 1.61860E+02 1.61860E+02 2.76255E+02 0.00000E+00-5.77223E-15-6.85539E-14
 -1         4 1.61860E+02 1.61860E+02 2.76255E+02 0.00000E+00-1.32053E-14 1.00748E-13
 -1         5 1.61860E+02 1.61860E+02 2.76255E+02 0.00000E+00 1.69402E-14-1.44843E-14
 -1         6 1.61860E+02 1.61860E+02 2.76255E+02 0.00000E+00-1.22325E-14 4.95812E-16
 -1         7 1.61860E+02 1.61860E+02 2.76255E+02 0.00000E+00 1.10526E-13 8.08280E-14
 -1         8 1.61860E+02 1.61860E+02 2.76255E+02 0.00000E+00-1.67877E-16-2.15361E-14
 -1         9 1.61875E+02 1.61875E+02 2.76280E+02 0.00000E+00-2.39549E-14-1.17026E-14
 -1        10 1.61875E+02 1.61875E+02 2.76280E+02 0.00000E+00 2.51910E-14 2.20360E-14
 -1        11 1.61875E+02 1.61875E+02 2.76280E+02 0.00000E+00 1.45628E-14 1.27992E-14
 -1        12 1.61875E+02 1.61875E+02 2.76280E+02 0.00000E+00 1.38466E-14 9.82602E-15
 -1        13 1.61875E+02 1.61875E+02 2.76280E+02 0.00000E+00-9.84430E-15-1.44938E-15
 -1        14 1.61875E+02 1.61875E+02 2.76280E+02 0.00000E+00 2.34609E-14 5.11438E-15
 -1        15 1.61875E+02 1.61875E+02 2.76280E+02 0.00000E+00-6.65555E-14 1.42581E-14
 -1        16 1.61875E+02 1.61875E+02 2.76280E+02 0.00000E+00 2.54626E-14 2.39089E-14
 -1        17 1.61875E+02 1.61875E+02 2.76280E+02 0.00000E+00-2.78400E-15 1.30133E-14
 -1        18 1.61875E+02 1.61875E+02 2.76280E+02 0.00000E+00 3.48626E-14-4.49108E-14
 -1        19 1.61875E+02 1.61875E+02 2.76280E+02 0.00000E+00 2.99202E-14-6.41275E-15
 -1        20 1.61875E+02 1.61875E+02 2.76280E+02 0.00000E+00 1.31818E-14 2.55660E-14
 -3
    1PSTEP                       168          34           1          
  100CL  134 38226.62131          20                     0   34           1
 -4  TOSTRAIN    6    1
 -5  EXX         1    4    1    1
 -5  EYY         1    4    2    2
 -5  EZZ         1    4    3    3
 -5  EXY         1    4    1    2
 -5  EYZ         1    4    2    3
 -5  EZX         1    4    3    1
 -1         1 0.00000E+00 0.00000E+00 1.99992E-03 0.00000E+00 4.12546E-19 7.19066E-19
 -1         2 0.00000E+00 0.00000E+00 1.99992E-03 0.00000E+00-6.48839E-19-8.08690E-19
 -1         3 0.00000E+00 0.00000E+00 1.99992E-03 0.00000E+00-1.00914E-19-1.19850E-18
 -1         4 0.00000E+00 0.00000E+00 1.99992E-03 0.00000E+00-2.30863E-19 1.76134E-18
 -1         5 0.00000E+00 0.00000E+00 1.99992E-03 0.00000E+00 2.96159E-19-2.53224E-19
 -1         6 0.00000E+00 0.00000E+00 1.99992E-03 0.00000E+00-2.13856E-19 8.66809E-21
 -1         7 0.00000E+00 0.00000E+00 1.99992E-03 0.00000E+00 1.93228E-18 1.41309E-18
 -1         8 0.00000E+00 0.00000E+00 1.99992E-03 0.00000E+00-2.93494E-21-3.76507E-19
 -1         9 0.00000E+00 0.00000E+00 2.00010E-03 0.00000E+00-4.18795E-19-2.04593E-19
 -1        10 0.00000E+00 0.00000E+00 2.00010E-03 0.00000E+00 4.40404E-19 3.85247E-19
 -1        11 0.00000E+00 0.00000E+00 2.00010E-03 0.00000E+00 2.54597E-19 2.23763E-19
 -1        12 0.00000E+00 0.00000E+00 2.00010E-03 0.00000E+00 2.42075E-19 1.71784E-19
 -1        13 0.00000E+00 0.00000E+00 2.00010E-03 0.00000E+00-1.72104E-19-2.53389E-20
 -1        14 0.00000E+00 0.00000E+00 2.00010E-03 0.00000E+00 4.10158E-19 8.94127E-20
 -1        15 0.00000E+00 0.00000E+00 2.00010E-03 0.00000E+00-1.16356E-18 2.49269E-19
 -1        16 0.00000E+00 0.00000E+00 2.00010E-03 0.00000E+00 4.45153E-19 4.17991E-19
 -1        17 0.00000E+00 0.00000E+00 2.00010E-03 0.00000E+00-4.86716E-20 2.27507E-19
 -1        18 0.00000E+00 0.00000E+00 2.00010E-03 0.00000E+00 6.09490E-19-7.85158E-19
 -1        19 0.00000E+00 0.00000E+00 2.00010E-03 0.00000E+00 5.23083E-19-1.12112E-19
 -1        20 0.00000E+00 0.00000E+00 2.00010E-03 0.00000E+00 2.30452E-19 4.46960E-19
 -3
    1PSTEP                       169          34           1          
  100CL  134 38226.62131          20                     0   34           1
 -4  FORC        4    1
 -5  F1          1    2    1    0
 -5  F2          1    2    2    0
 -5  F3          1    2    3    0
 -5  ALL         1    2    0    0    1ALL
 -1         1-1.34889E+01-1.34889E+01 2.30222E+01
 -1         2-1.34889E+01 1.34889E+01 2.30222E+01
 -1         3-1.34889E+01 1.34889E+01-2.30222E+01
 -1         4-1.34889E+01-1.34889E+01-2.30222E+01
 -1         5 1.34889E+01-1.34889E+01 2.30222E+01
 -1         6 1.34889E+01 1.34889E+01 2.30222E+01
 -1         7 1.34889E+01 1.34889E+01-2.30222E+01
 -1         8 1.34889E+01-1.34889E+01-2.30222E+01
 -1         9 5.39556E+01-8.55991E-15-9.20887E+01
 -1        10 5.39556E+01-5.39556E+01 3.10862E-15
 -1        11 5.39556E+01 5.36802E-15 9.20887E+01
 -1        12 5.39556E+01 5.39556E+01 1.90958E-14
 -1        13 1.39569E-16 5.39556E+01-9.20887E+01
 -1        14 9.33562E-15-5.39556E+01-9.20887E+01
 -1        15 3.76501E-15-5.39556E+01 9.20887E+01
 -1        16-5.74619E-15 5.39556E+01 9.20887E+01
 -1        17-5.39556E+01 3.59486E-16-9.20887E+01
 -1        18-5.39556E+01-5.39556E+01 0.00000E+00
 -1        19-5.39556E+01 3.85936E-15 9.20887E+01
 -1        20-5.39556E+01 5.39556E+01-1.33227E-15
 -3
    1PSTEP                       170          34           1          
  100CL  134 38226.62131          20                     0   34           1
 -4  ERROR       1    1
 -5  STR(%)      1    1    0    0
 -1         1 8.41953E-15
 -1         2 8.41953E-15
 -1         3 8.41953E-15
 -1         4 8.41953E-15
 -1         5 8.41953E-15
 -1         6 8.41953E-15
 -1         7 8.41953E-15
 -1         8 8.41953E-15
 -1         9 8.41953E-15
 -1        10 8.41953E-15
 -1        11 8.41953E-15
 -1        12 8.41953E-15
 -1        13 8.41953E-15
 -1        14 8.41953E-15
 -1        15 8.41953E-15
 -1        16 8.41953E-15
 -1        17 8.41953E-15
 -1        18 8.41953E-15
 -1        19 8.41953E-15
 -1        20 8.41953E-15
 -3
    1PSTEP                       171          35           1          
  100CL  135 40312.85025          20                     0   35           1
 -4  DISP        4    1
 -5  D1          1    2    1    0
 -5  D2          1    2    2    0
 -5  D3          1    2    3    0
 -5  ALL         1    2    0    0    1ALL
 -1         1 0.00000E+00 0.00000E+00 0.00000E+00
 -1         2 0.00000E+00 0.00000E+00 0.00000E+00
 -1         3 0.00000E+00 0.00000E+00 2.00000E-03
 -1         4 0.00000E+00 0.00000E+00 2.00000E-03
 -1         5 0.00000E+00 0.00000E+00 0.00000E+00
 -1         6 0.00000E+00 0.00000E+00 0.00000E+00
 -1         7 0.00000E+00 0.00000E+00 2.00000E-03
 -1         8 0.00000E+00 0.00000E+00 2.00000E-03
 -1         9 0.00000E+00 0.00000E+00 0.00000E+00
 -1        10 0.00000E+00 0.00000E+00 1.00000E-03
 -1        11 0.00000E+00 0.00000E+00 2.00000E-03
 -1        12 0.00000E+00 0.00000E+00 1.00000E-03
 -1        13 0.00000E+00 0.00000E+00 0.00000E+00
 -1        14 0.00000E+00 0.00000E+00 0.00000E+00
 -1        15 0.00000E+00 0.00000E+00 2.00000E-03
 -1        16 0.00000E+00 0.00000E+00 2.00000E-03
 -1        17 0.00000E+00 0.00000E+00 0.00000E+00
 -1        18 0.00000E+00 0.00000E+00 1.00000E-03
 -1        19 0.00000E+00 0.00000E+00 2.00000E-03
 -1        20 0.00000E+00 0.00000E+00 1.00000E-03
 -3
    1PSTEP                       172          35           1          
  100CL  135 40312.85025          20                     0   35           1
 -4  STRESS      6    1
 -5  SXX         1    4    1    1
 -5  SYY         1    4    2    2
 -5  SZZ         1    4    3    3
 -5  SXY         1    4    1    2
 -5  SYZ         1    4    2    3
 -5  SZX         1    4    3    1
 -1         1 1.62178E+02 1.62178E+02 2.75621E+02 0.00000E+00 2.34013E-14 4.07883E-14
 -1         2 1.62178E+02 1.62178E+02 2.75621E+02 0.00000E+00-3.68047E-14-4.58721E-14
 -1         3 1.62178E+02 1.62178E+02 2.75621E+02 0.00000E+00-5.72423E-15-6.79838E-14
 -1         4 1.62178E+02 1.62178E+02 2.75621E+02 0.00000E+00-1.30955E-14 9.99101E-14
 -1         5 1.62178E+02 1.62178E+02 2.75621E+02 0.00000E+00 1.67993E-14-1.43639E-14
 -1         6 1.62178E+02 1.62178E+02 2.75621E+02 0.00000E+00-1.21308E-14 4.91689E-16
 -1         7 1.62178E+02 1.62178E+02 2.75621E+02 0.00000E+00 1.09607E-13 8.01559E-14
 -1         8 1.62178E+02 1.62178E+02 2.75621E+02 0.00000E+00-1.66481E-16-2.13570E-14
 -1         9 1.62192E+02 1.62192E+02 2.75646E+02 0.00000E+00-2.37557E-14-1.16053E-14
 -1        10 1.62192E+02 1.62192E+02 2.75646E+02 0.00000E+00 2.49815E-14 2.18528E-14
 -1        11 1.62192E+02 1.62192E+02 2.75646E+02 0.00000E+00 1.44417E-14 1.26928E-14
 -1        12 1.62192E+02 1.62192E+02 2.75646E+02 0.00000E+00 1.37314E-14 9.74431E-15
 -1        13 1.62192E+02 1.62192E+02 2.75646E+02 0.00000E+00-9.76244E-15-1.43733E-15
 -1        14 1.62192E+02 1.62192E+02 2.75646E+02 0.00000E+00 2.32658E-14 5.07185E-15
 -1        15 1.62192E+02 1.62192E+02 2.75646E+02 0.00000E+00-6.60021E-14 1.41395E-14
 -1        16 1.62192E+02 1.62192E+02 2.75646E+02 0.00000E+00 2.52509E-14 2.37101E-14
 -1        17 1.62192E+02 1.62192E+02 2.75646E+02 0.00000E+00-2.76085E-15 1.29051E-14
 -1        18 1.62192E+02 1.62192E+02 2.75646E+02 0.00000E+00 3.45727E-14-4.45373E-14
 -1        19 1.62192E+02 1.62192E+02 2.75646E+02 0.00000E+00 2.96714E-14-6.35942E-15
 -1        20 1.62192E+02 1.62192E+02 2.75646E+02 0.00000E+00 1.30721E-14 2.53534E-14
 -3
    1PSTEP                       173          35           1          
  100CL  135 40312.85025          20                     0   35           1
 -4  TOSTRAIN    6    1
 -5  EXX         1    4    1    1
 -5  EYY         1    4    2    2
 -5  EZZ         1    4    3    3
 -5  EXY         1    4    1    2
 -5  EYZ         1    4    2    3
 -5  EZX         1    4    3    1
 -1         1 0.00000E+00 0.00000E+00 1.99992E-03 0.00000E+00 4.12546E-19 7.19066E-19
 -1         2 0.00000E+00 0.00000E+00 1.99992E-03 0.00000E+00-6.48839E-19-8.08690E-19
 -1         3 0.00000E+00 0.00000E+00 1.99992E-03 0.00000E+00-1.00914E-19-1.19850E-18
 -1         4 0.00000E+00 0.00000E+00 1.99992E-03 0.00000E+00-2.30863E-19 1.76134E-18
 -1         5 0.00000E+00 0.00000E+00 1.99992E-03 0.00000E+00 2.96159E-19-2.53224E-19
 -1         6 0.00000E+00 0.00000E+00 1.99992E-03 0.00000E+00-2.13856E-19 8.66809E-21
 -1         7 0.00000E+00 0.00000E+00 1.99992E-03 0.00000E+00 1.93228E-18 1.41309E-18
 -1         8 0.00000E+00 0.00000E+00 1.99992E-03 0.00000E+00-2.93494E-21-3.76507E-19
 -1         9 0.00000E+00 0.00000E+00 2.00010E-03 0.00000E+00-4.18795E-19-2.04593E-19
 -1        10 0.00000E+00 0.00000E+00 2.00010E-03 0.00000E+00 4.40404E-19 3.85247E-19
 -1        11 0.00000E+00 0.00000E+00 2.00010E-03 0.00000E+00 2.54597E-19 2.23763E-19
 -1        12 0.00000E+00 0.00000E+00 2.00010E-03 0.00000E+00 2.42075E-19 1.71784E-19
 -1        13 0.00000E+00 0.00000E+00 2.00010E-03 0.00000E+00-1.72104E-19-2.53389E-20
 -1        14 0.00000E+00 0.00000E+00 2.00010E-03 0.00000E+00 4.10158E-19 8.94127E-20
 -1        15 0.00000E+00 0.00000E+00 2.00010E-03 0.00000E+00-1.16356E-18 2.49269E-19
 -1        16 0.00000E+00 0.00000E+00 2.00010E-03 0.00000E+00 4.45153E-19 4.17991E-19
 -1        17 0.00000E+00 0.00000E+00 2.00010E-03 0.00000E+00-4.86716E-20 2.27507E-19
 -1        18 0.00000E+00 0.00000E+00 2.00010E-03 0.00000E+00 6.09490E-19-7.85158E-19
 -1        19 0.00000E+00 0.00000E+00 2.00010E-03 0.00000E+00 5.23083E-19-1.12112E-19
 -1        20 0.00000E+00 0.00000E+00 2.00010E-03 0.00000E+00 2.30452E-19 4.46960E-19
 -3
    1PSTEP                       174          35           1          
  100CL  135 40312.85025          20                     0   35           1
 -4  FORC        4    1
 -5  F1          1    2    1    0
 -5  F2          1    2    2    0
 -5  F3          1    2    3    0
 -5  ALL         1    2    0    0    1ALL
 -1         1-1.35153E+01-1.35153E+01 2.29693E+01
 -1         2-1.35153E+01 1.35153E+01 2.29693E+01
 -1         3-1.35153E+01 1.35153E+01-2.29693E+01
 -1         4-1.35153E+01-1.35153E+01-2.29693E+01
 -1         5 1.35153E+01-1.35153E+01 2.29693E+01
 -1         6 1.35153E+01 1.35153E+01 2.29693E+01
 -1         7 1.35153E+01 1.35153E+01-2.29693E+01
 -1         8 1.35153E+01-1.35153E+01-2.29693E+01
 -1         9 5.40613E+01-7.72692E-15-9.18773E+01
 -1        10 5.40613E+01-5.40613E+01 3.10862E-15
 -1        11 5.40613E+01 5.14565E-15 9.18773E+01
 -1        12 5.40613E+01 5.40613E+01 1.81799E-14
 -1        13-2.77454E-15 5.40613E+01-9.18773E+01
 -1        14 1.28901E-14-5.40613E+01-9.18773E+01
 -1        15-5.11854E-15-5.40613E+01 9.18773E+01
 -1        16-4.63620E-15 5.40613E+01 9.18773E+01
 -1        17-5.40613E+01-5.26142E-16-9.18773E+01
 -1        18-5.40613E+01-5.40613E+01 3.55271E-15
 -1        19-5.40613E+01 3.04097E-16 9.18773E+01
 -1        20-5.40613E+01 5.40613E+01-4.66294E-15
 -3
    1PSTEP                       175          35           1          
  100CL  135 40312.85025          20                     0   35           1
 -4  ERROR       1    1
 -5  STR(%)      1    1    0    0
 -1         1 6.32918E-15
 -1         2 6.32918E-15
 -1         3 6.32918E-15
 -1         4 6.32918E-15
 -1         5 6.32918E-15
 -1         6 6.32918E-15
 -1         7 6.32918E-15
 -1         8 6.32918E-15
 -1         9 6.32918E-15
 -1        10 6.32918E-15
 -1        11 6.32918E-15
 -1        12 6.32918E-15
 -1        13 6.32918E-15
 -1        14 6.32918E-15
 -1        15 6.32918E-15
 -1        16 6.32918E-15
 -1        17 6.32918E-15
 -1        18 6.32918E-15
 -1        19 6.32918E-15
 -1        20 6.32918E-15
 -3
    1PSTEP                       176          36           1          
  100CL  136 41813.48419          20                     0   36           1
 -4  DISP        4    1
 -5  D1          1    2    1    0
 -5  D2          1    2    2    0
 -5  D3          1    2    3    0
 -5  ALL         1    2    0    0    1ALL
 -1         1 0.00000E+00 0.00000E+00 0.00000E+00
 -1         2 0.00000E+00 0.00000E+00 0.00000E+00
 -1         3 0.00000E+00 0.00000E+00 2.00000E-03
 -1         4 0.00000E+00 0.00000E+00 2.00000E-03
 -1         5 0.00000E+00 0.00000E+00 0.00000E+00
 -1         6 0.00000E+00 0.00000E+00 0.00000E+00
 -1         7 0.00000E+00 0.00000E+00 2.00000E-03
 -1         8 0.00000E+00 0.00000E+00 2.00000E-03
 -1         9 0.00000E+00 0.00000E+00 0.00000E+00
 -1        10 0.00000E+00 0.00000E+00 1.00000E-03
 -1        11 0.00000E+00 0.00000E+00 2.00000E-03
 -1        12 0.00000E+00 0.00000E+00 1.00000E-03
 -1        13 0.00000E+00 0.00000E+00 0.00000E+00
 -1        14 0.00000E+00 0.00000E+00 0.00000E+00
 -1        15 0.00000E+00 0.00000E+00 2.00000E-03
 -1        16 0.00000E+00 0.00000E+00 2.00000E-03
 -1        17 0.00000E+00 0.00000E+00 0.00000E+00
 -1        18 0.00000E+00 0.00000E+00 1.00000E-03
 -1        19 0.00000E+00 0.00000E+00 2.00000E-03
 -1        20 0.00000E+00 0.00000E+00 1.00000E-03
 -3
    1PSTEP                       177          36           1          
  100CL  136 41813.48419          20                     0   36           1
 -4  STRESS      6    1
 -5  SXX         1    4    1    1
 -5  SYY         1    4    2    2
 -5  SZZ         1    4    3    3
 -5  SXY         1    4    1    2
 -5  SYZ         1    4    2    3
 -5  SZX         1    4    3    1
 -1         1 1.62404E+02 1.62404E+02 2.75168E+02 0.00000E+00 2.32610E-14 4.05438E-14
 -1         2 1.62404E+02 1.62404E+02 2.75168E+02 0.00000E+00-3.65841E-14-4.55971E-14
 -1         3 1.62404E+02 1.62404E+02 2.75168E+02 0.00000E+00-5.68991E-15-6.75762E-14
 -1         4 1.62404E+02 1.62404E+02 2.75168E+02 0.00000E+00-1.30169E-14 9.93111E-14
 -1         5 1.62404E+02 1.62404E+02 2.75168E+02 0.00000E+00 1.66986E-14-1.42778E-14
 -1         6 1.62404E+02 1.62404E+02 2.75168E+02 0.00000E+00-1.20581E-14 4.88741E-16
 -1         7 1.62404E+02 1.62404E+02 2.75168E+02 0.00000E+00 1.08950E-13 7.96753E-14
 -1         8 1.62404E+02 1.62404E+02 2.75168E+02 0.00000E+00-1.65483E-16-2.12289E-14
 -1         9 1.62419E+02 1.62419E+02 2.75192E+02 0.00000E+00-2.36133E-14-1.15358E-14
 -1        10 1.62419E+02 1.62419E+02 2.75192E+02 0.00000E+00 2.48317E-14 2.17217E-14
 -1        11 1.62419E+02 1.62419E+02 2.75192E+02 0.00000E+00 1.43552E-14 1.26167E-14
 -1        12 1.62419E+02 1.62419E+02 2.75192E+02 0.00000E+00 1.36491E-14 9.68588E-15
 -1        13 1.62419E+02 1.62419E+02 2.75192E+02 0.00000E+00-9.70391E-15-1.42871E-15
 -1        14 1.62419E+02 1.62419E+02 2.75192E+02 0.00000E+00 2.31263E-14 5.04144E-15
 -1        15 1.62419E+02 1.62419E+02 2.75192E+02 0.00000E+00-6.56064E-14 1.40548E-14
 -1        16 1.62419E+02 1.62419E+02 2.75192E+02 0.00000E+00 2.50995E-14 2.35680E-14
 -1        17 1.62419E+02 1.62419E+02 2.75192E+02 0.00000E+00-2.74430E-15 1.28277E-14
 -1        18 1.62419E+02 1.62419E+02 2.75192E+02 0.00000E+00 3.43655E-14-4.42703E-14
 -1        19 1.62419E+02 1.62419E+02 2.75192E+02 0.00000E+00 2.94935E-14-6.32130E-15
 -1        20 1.62419E+02 1.62419E+02 2.75192E+02 0.00000E+00 1.29938E-14 2.52014E-14
 -3
    1PSTEP                       178          36           1          
  100CL  136 41813.48419          20                     0   36           1
 -4  TOSTRAIN    6    1
 -5  EXX         1    4    1    1
 -5  EYY         1    4    2    2
 -5  EZZ         1    4    3    3
 -5  EXY         1    4    1    2
 -5  EYZ         1    4    2    3
 -5  EZX         1    4    3    1
 -1         1 0.00000E+00 0.00000E+00 1.99992E-03 0.00000E+00 4.12546E-19 7.19066E-19
 -1         2 0.00000E+00 0.00000E+00 1.99992E-03 0.00000E+00-6.48839E-19-8.08690E-19
 -1         3 0.00000E+00 0.00000E+00 1.99992E-03 0.00000E+00-1.00914E-19-1.19850E-18
 -1         4 0.00000E+00 0.00000E+00 1.99992E-03 0.00000E+00-2.30863E-19 1.76134E-18
 -1         5 0.00000E+00 0.00000E+00 1.99992E-03 0.00000E+00 2.96159E-19-2.53224E-19
 -1         6 0.00000E+00 0.00000E+00 1.99992E-03 0.00000E+00-2.13856E-19 8.66809E-21
 -1         7 0.00000E+00 0.00000E+00 1.99992E-03 0.00000E+00 1.93228E-18 1.41309E-18
 -1         8 0.00000E+00 0.00000E+00 1.99992E-03 0.00000E+00-2.93494E-21-3.76507E-19
 -1         9 0.00000E+00 0.00000E+00 2.00010E-03 0.00000E+00-4.18795E-19-2.04593E-19
 -1        10 0.00000E+00 0.00000E+00 2.00010E-03 0.00000E+00 4.40404E-19 3.85247E-19
 -1        11 0.00000E+00 0.00000E+00 2.00010E-03 0.00000E+00 2.54597E-19 2.23763E-19
 -1        12 0.00000E+00 0.00000E+00 2.00010E-03 0.00000E+00 2.42075E-19 1.71784E-19
 -1        13 0.00000E+00 0.00000E+00 2.00010E-03 0.00000E+00-1.72104E-19-2.53389E-20
 -1        14 0.00000E+00 0.00000E+00 2.00010E-03 0.00000E+00 4.10158E-19 8.94127E-20
 -1        15 0.00000E+00 0.00000E+00 2.00010E-03 0.00000E+00-1.16356E-18 2.49269E-19
 -1        16 0.00000E+00 0.00000E+00 2.00010E-03 0.00000E+00 4.45153E-19 4.17991E-19
 -1        17 0.00000E+00 0.00000E+00 2.00010E-03 0.00000E+00-4.86716E-20 2.27507E-19
 -1        18 0.00000E+00 0.00000E+00 2.00010E-03 0.00000E+00 6.09490E-19-7.85158E-19
 -1        19 0.00000E+00 0.00000E+00 2.00010E-03 0.00000E+00 5.23083E-19-1.12112E-19
 -1        20 0.00000E+00 0.00000E+00 2.00010E-03 0.00000E+00 2.30452E-19 4.46960E-19
 -3
    1PSTEP                       179          36           1          
  100CL  136 41813.48419          20                     0   36           1
 -4  FORC        4    1
 -5  F1          1    2    1    0
 -5  F2          1    2    2    0
 -5  F3          1    2    3    0
 -5  ALL         1    2    0    0    1ALL
 -1         1-1.35342E+01-1.35342E+01 2.29315E+01
 -1         2-1.35342E+01 1.35342E+01 2.29315E+01
 -1         3-1.35342E+01 1.35342E+01-2.29315E+01
 -1         4-1.35342E+01-1.35342E+01-2.29315E+01
 -1         5 1.35342E+01-1.35342E+01 2.29315E+01
 -1         6 1.35342E+01 1.35342E+01 2.29315E+01
 -1         7 1.35342E+01 1.35342E+01-2.29315E+01
 -1         8 1.35342E+01-1.35342E+01-2.29315E+01
 -1         9 5.41369E+01-9.39202E-15-9.17262E+01
 -1        10 5.41369E+01-5.41369E+01-8.88178E-16
 -1        11 5.41369E+01 7.58791E-15 9.17262E+01
 -1        12 5.41369E+01 5.41369E+01 1.59039E-14
 -1        13 2.97102E-15 5.41369E+01-9.17262E+01
 -1        14 6.23003E-15-5.41369E+01-9.17262E+01
 -1        15-1.56709E-15-5.41369E+01 9.17262E+01
 -1        16-5.08045E-15 5.41369E+01 9.17262E+01
 -1        17-5.41369E+01 3.63860E-16-9.17262E+01
 -1        18-5.41369E+01-5.41369E+01-1.77636E-15
 -1        19-5.41369E+01 2.07863E-15 9.17262E+01
 -1        20-5.41369E+01 5.41369E+01 1.11022E-15
 -3
    1PSTEP                       180          36           1          
  100CL  136 41813.48419          20                     0   36           1
 -4  ERROR       1    1
 -5  STR(%)      1    1    0    0
 -1         1 6.33961E-15
 -1         2 6.33961E-15
 -1         3 6.33961E-15
 -1         4 6.33961E-15
 -1         5 6.33961E-15
 -1         6 6.33961E-15
 -1         7 6.33961E-15
 -1         8 6.33961E-15
 -1         9 6.33961E-15
 -1        10 6.33961E-15
 -1        11 6.33961E-15
 -1        12 6.33961E-15
 -1        13 6.33961E-15
 -1        14 6.33961E-15
 -1        15 6.33961E-15
 -1        16 6.33961E-15
 -1        17 6.33961E-15
 -1        18 6.33961E-15
 -1        19 6.33961E-15
 -1        20 6.33961E-15
 -3
    1PSTEP                       181          37           1          
  100CL  137 43314.11813          20                     0   37           1
 -4  DISP        4    1
 -5  D1          1    2    1    0
 -5  D2          1    2    2    0
 -5  D3          1    2    3    0
 -5  ALL         1    2    0    0    1ALL
 -1         1 0.00000E+00 0.00000E+00 0.00000E+00
 -1         2 0.00000E+00 0.00000E+00 0.00000E+00
 -1         3 0.00000E+00 0.00000E+00 2.00000E-03
 -1         4 0.00000E+00 0.00000E+00 2.00000E-03
 -1         5 0.00000E+00 0.00000E+00 0.00000E+00
 -1         6 0.00000E+00 0.00000E+00 0.00000E+00
 -1         7 0.00000E+00 0.00000E+00 2.00000E-03
 -1         8 0.00000E+00 0.00000E+00 2.00000E-03
 -1         9 0.00000E+00 0.00000E+00 0.00000E+00
 -1        10 0.00000E+00 0.00000E+00 1.00000E-03
 -1        11 0.00000E+00 0.00000E+00 2.00000E-03
 -1        12 0.00000E+00 0.00000E+00 1.00000E-03
 -1        13 0.00000E+00 0.00000E+00 0.00000E+00
 -1        14 0.00000E+00 0.00000E+00 0.00000E+00
 -1        15 0.00000E+00 0.00000E+00 2.00000E-03
 -1        16 0.00000E+00 0.00000E+00 2.00000E-03
 -1        17 0.00000E+00 0.00000E+00 0.00000E+00
 -1        18 0.00000E+00 0.00000E+00 1.00000E-03
 -1        19 0.00000E+00 0.00000E+00 2.00000E-03
 -1        20 0.00000E+00 0.00000E+00 1.00000E-03
 -3
    1PSTEP                       182          37           1          
  100CL  137 43314.11813          20                     0   37           1
 -4  STRESS      6    1
 -5  SXX         1    4    1    1
 -5  SYY         1    4    2    2
 -5  SZZ         1    4    3    3
 -5  SXY         1    4    1    2
 -5  SYZ         1    4    2    3
 -5  SZX         1    4    3    1
 -1         1 1.62630E+02 1.62630E+02 2.74717E+02 0.00000E+00 2.31215E-14 4.03007E-14
 -1         2 1.62630E+02 1.62630E+02 2.74717E+02 0.00000E+00-3.63647E-14-4.53237E-14
 -1         3 1.62630E+02 1.62630E+02 2.74717E+02 0.00000E+00-5.65580E-15-6.71711E-14
 -1         4 1.62630E+02 1.62630E+02 2.74717E+02 0.00000E+00-1.29389E-14 9.87157E-14
 -1         5 1.62630E+02 1.62630E+02 2.74717E+02 0.00000E+00 1.65985E-14-1.41922E-14
 -1         6 1.62630E+02 1.62630E+02 2.74717E+02 0.00000E+00-1.19858E-14 4.85811E-16
 -1         7 1.62630E+02 1.62630E+02 2.74717E+02 0.00000E+00 1.08296E-13 7.91976E-14
 -1         8 1.62630E+02 1.62630E+02 2.74717E+02 0.00000E+00-1.64491E-16-2.11017E-14
 -1         9 1.62644E+02 1.62644E+02 2.74742E+02 0.00000E+00-2.34717E-14-1.14666E-14
 -1        10 1.62644E+02 1.62644E+02 2.74742E+02 0.00000E+00 2.46829E-14 2.15915E-14
 -1        11 1.62644E+02 1.62644E+02 2.74742E+02 0.00000E+00 1.42691E-14 1.25410E-14
 -1        12 1.62644E+02 1.62644E+02 2.74742E+02 0.00000E+00 1.35673E-14 9.62781E-15
 -1        13 1.62644E+02 1.62644E+02 2.74742E+02 0.00000E+00-9.64573E-15-1.42014E-15
 -1        14 1.62644E+02 1.62644E+02 2.74742E+02 0.00000E+00 2.29877E-14 5.01121E-15
 -1        15 1.62644E+02 1.62644E+02 2.74742E+02 0.00000E+00-6.52130E-14 1.39705E-14
 -1        16 1.62644E+02 1.62644E+02 2.74742E+02 0.00000E+00 2.49490E-14 2.34267E-14
 -1        17 1.62644E+02 1.62644E+02 2.74742E+02 0.00000E+00-2.72784E-15 1.27508E-14
 -1        18 1.62644E+02 1.62644E+02 2.74742E+02 0.00000E+00 3.41594E-14-4.40049E-14
 -1        19 1.62644E+02 1.62644E+02 2.74742E+02 0.00000E+00 2.93167E-14-6.28340E-15
 -1        20 1.62644E+02 1.62644E+02 2.74742E+02 0.00000E+00 1.29159E-14 2.50503E-14
 -3
    1PSTEP                       183          37           1          
  100CL  137 43314.11813          20                     0   37           1
 -4  TOSTRAIN    6    1
 -5  EXX         1    4    1    1
 -5  EYY         1    4    2    2
 -5  EZZ         1    4    3    3
 -5  EXY         1    4    1    2
 -5  EYZ         1    4    2    3
 -5  EZX         1    4    3    1
 -1         1 0.00000E+00 0.00000E+00 1.99992E-03 0.00000E+00 4.12546E-19 7.19066E-19
 -1         2 0.00000E+00 0.00000E+00 1.99992E-03 0.00000E+00-6.48839E-19-8.08690E-19
 -1         3 0.00000E+00 0.00000E+00 1.99992E-03 0.00000E+00-1.00914E-19-1.19850E-18
 -1         4 0.00000E+00 0.00000E+00 1.99992E-03 0.00000E+00-2.30863E-19 1.76134E-18
 -1         5 0.00000E+00 0.00000E+00 1.99992E-03 0.00000E+00 2.96159E-19-2.53224E-19
 -1         6 0.00000E+00 0.00000E+00 1.99992E-03 0.00000E+00-2.13856E-19 8.66809E-21
 -1         7 0.00000E+00 0.00000E+00 1.99992E-03 0.00000E+00 1.93228E-18 1.41309E-18
 -1         8 0.00000E+00 0.00000E+00 1.99992E-03 0.00000E+00-2.93494E-21-3.76507E-19
 -1         9 0.00000E+00 0.00000E+00 2.00010E-03 0.00000E+00-4.18795E-19-2.04593E-19
 -1        10 0.00000E+00 0.00000E+00 2.00010E-03 0.00000E+00 4.40404E-19 3.85247E-19
 -1        11 0.00000E+00 0.00000E+00 2.00010E-03 0.00000E+00 2.54597E-19 2.23763E-19
 -1        12 0.00000E+00 0.00000E+00 2.00010E-03 0.00000E+00 2.42075E-19 1.71784E-19
 -1        13 0.00000E+00 0.00000E+00 2.00010E-03 0.00000E+00-1.72104E-19-2.53389E-20
 -1        14 0.00000E+00 0.00000E+00 2.00010E-03 0.00000E+00 4.10158E-19 8.94127E-20
 -1        15 0.00000E+00 0.00000E+00 2.00010E-03 0.00000E+00-1.16356E-18 2.49269E-19
 -1        16 0.00000E+00 0.00000E+00 2.00010E-03 0.00000E+00 4.45153E-19 4.17991E-19
 -1        17 0.00000E+00 0.00000E+00 2.00010E-03 0.00000E+00-4.86716E-20 2.27507E-19
 -1        18 0.00000E+00 0.00000E+00 2.00010E-03 0.00000E+00 6.09490E-19-7.85158E-19
 -1        19 0.00000E+00 0.00000E+00 2.00010E-03 0.00000E+00 5.23083E-19-1.12112E-19
 -1        20 0.00000E+00 0.00000E+00 2.00010E-03 0.00000E+00 2.30452E-19 4.46960E-19
 -3
    1PSTEP                       184          37           1          
  100CL  137 43314.11813          20                     0   37           1
 -4  FORC        4    1
 -5  F1          1    2    1    0
 -5  F2          1    2    2    0
 -5  F3          1    2    3    0
 -5  ALL         1    2    0    0    1ALL
 -1         1-1.35530E+01-1.35530E+01 2.28940E+01
 -1         2-1.35530E+01 1.35530E+01 2.28940E+01
 -1         3-1.35530E+01 1.35530E+01-2.28940E+01
 -1         4-1.35530E+01-1.35530E+01-2.28940E+01
 -1         5 1.35530E+01-1.35530E+01 2.28940E+01
 -1         6 1.35530E+01 1.35530E+01 2.28940E+01
 -1         7 1.35530E+01 1.35530E+01-2.28940E+01
 -1         8 1.35530E+01-1.35530E+01-2.28940E+01
 -1         9 5.42120E+01-8.03177E-15-9.15760E+01
 -1        10 5.42120E+01-5.42120E+01 6.43929E-15
 -1        11 5.42120E+01 6.92155E-15 9.15760E+01
 -1        12 5.42120E+01 5.42120E+01 2.46470E-14
 -1        13-2.63545E-15 5.42120E+01-9.15760E+01
 -1        14 1.73335E-14-5.42120E+01-9.15760E+01
 -1        15 3.76073E-15-5.42120E+01 9.15760E+01
 -1        16-2.19402E-15 5.42120E+01 9.15760E+01
 -1        17-5.42120E+01-2.29886E-15-9.15760E+01
 -1        18-5.42120E+01-5.42120E+01 3.55271E-15
 -1        19-5.42120E+01 2.07682E-15 9.15760E+01
 -1        20-5.42120E+01 5.42120E+01 3.55271E-15
 -3
    1PSTEP                       185          37           1          
  100CL  137 43314.11813          20                     0   37           1
 -4  ERROR       1    1
 -5  STR(%)      1    1    0    0
 -1         1 1.05833E-14
 -1         2 1.05833E-14
 -1         3 1.05833E-14
 -1         4 1.05833E-14
 -1         5 1.05833E-14
 -1         6 1.05833E-14
 -1         7 1.05833E-14
 -1         8 1.05833E-14
 -1         9 1.05833E-14
 -1        10 1.05833E-14
 -1        11 1.05833E-14
 -1        12 1.05833E-14
 -1        13 1.05833E-14
 -1        14 1.05833E-14
 -1        15 1.05833E-14
 -1        16 1.05833E-14
 -1        17 1.05833E-14
 -1        18 1.05833E-14
 -1        19 1.05833E-14
 -1        20 1.05833E-14
 -3
    1PSTEP                       186          38           1          
  100CL  138 45565.06905          20                     0   38           1
 -4  DISP        4    1
 -5  D1          1    2    1    0
 -5  D2          1    2    2    0
 -5  D3          1    2    3    0
 -5  ALL         1    2    0    0    1ALL
 -1         1 0.00000E+00 0.00000E+00 0.00000E+00
 -1         2 0.00000E+00 0.00000E+00 0.00000E+00
 -1         3 0.00000E+00 0.00000E+00 2.00000E-03
 -1         4 0.00000E+00 0.00000E+00 2.00000E-03
 -1         5 0.00000E+00 0.00000E+00 0.00000E+00
 -1         6 0.00000E+00 0.00000E+00 0.00000E+00
 -1         7 0.00000E+00 0.00000E+00 2.00000E-03
 -1         8 0.00000E+00 0.00000E+00 2.00000E-03
 -1         9 0.00000E+00 0.00000E+00 0.00000E+00
 -1        10 0.00000E+00 0.00000E+00 1.00000E-03
 -1        11 0.00000E+00 0.00000E+00 2.00000E-03
 -1        12 0.00000E+00 0.00000E+00 1.00000E-03
 -1        13 0.00000E+00 0.00000E+00 0.00000E+00
 -1        14 0.00000E+00 0.00000E+00 0.00000E+00
 -1        15 0.00000E+00 0.00000E+00 2.00000E-03
 -1        16 0.00000E+00 0.00000E+00 2.00000E-03
 -1        17 0.00000E+00 0.00000E+00 0.00000E+00
 -1        18 0.00000E+00 0.00000E+00 1.00000E-03
 -1        19 0.00000E+00 0.00000E+00 2.00000E-03
 -1        20 0.00000E+00 0.00000E+00 1.00000E-03
 -3
    1PSTEP                       187          38           1          
  100CL  138 45565.06905          20                     0   38           1
 -4  STRESS      6    1
 -5  SXX         1    4    1    1
 -5  SYY         1    4    2    2
 -5  SZZ         1    4    3    3
 -5  SXY         1    4    1    2
 -5  SYZ         1    4    2    3
 -5  SZX         1    4    3    1
 -1         1 1.62965E+02 1.62965E+02 2.74047E+02 0.00000E+00 2.29142E-14 3.99393E-14
 -1         2 1.62965E+02 1.62965E+02 2.74047E+02 0.00000E+00-3.60387E-14-4.49173E-14
 -1         3 1.62965E+02 1.62965E+02 2.74047E+02 0.00000E+00-5.60508E-15-6.65688E-14
 -1         4 1.62965E+02 1.62965E+02 2.74047E+02 0.00000E+00-1.28229E-14 9.78306E-14
 -1         5 1.62965E+02 1.62965E+02 2.74047E+02 0.00000E+00 1.64496E-14-1.40649E-14
 -1         6 1.62965E+02 1.62965E+02 2.74047E+02 0.00000E+00-1.18783E-14 4.81455E-16
 -1         7 1.62965E+02 1.62965E+02 2.74047E+02 0.00000E+00 1.07325E-13 7.84875E-14
 -1         8 1.62965E+02 1.62965E+02 2.74047E+02 0.00000E+00-1.63016E-16-2.09124E-14
 -1         9 1.62979E+02 1.62979E+02 2.74072E+02 0.00000E+00-2.32613E-14-1.13638E-14
 -1        10 1.62979E+02 1.62979E+02 2.74072E+02 0.00000E+00 2.44615E-14 2.13979E-14
 -1        11 1.62979E+02 1.62979E+02 2.74072E+02 0.00000E+00 1.41411E-14 1.24286E-14
 -1        12 1.62979E+02 1.62979E+02 2.74072E+02 0.00000E+00 1.34456E-14 9.54149E-15
 -1        13 1.62979E+02 1.62979E+02 2.74072E+02 0.00000E+00-9.55924E-15-1.40741E-15
 -1        14 1.62979E+02 1.62979E+02 2.74072E+02 0.00000E+00 2.27816E-14 4.96628E-15
 -1        15 1.62979E+02 1.62979E+02 2.74072E+02 0.00000E+00-6.46283E-14 1.38452E-14
 -1        16 1.62979E+02 1.62979E+02 2.74072E+02 0.00000E+00 2.47253E-14 2.32166E-14
 -1        17 1.62979E+02 1.62979E+02 2.74072E+02 0.00000E+00-2.70338E-15 1.26365E-14
 -1        18 1.62979E+02 1.62979E+02 2.74072E+02 0.00000E+00 3.38531E-14-4.36103E-14
 -1        19 1.62979E+02 1.62979E+02 2.74072E+02 0.00000E+00 2.90538E-14-6.22706E-15
 -1        20 1.62979E+02 1.62979E+02 2.74072E+02 0.00000E+00 1.28001E-14 2.48257E-14
 -3
    1PSTEP                       188          38           1          
  100CL  138 45565.06905          20                     0   38           1
 -4  TOSTRAIN    6    1
 -5  EXX         1    4    1    1
 -5  EYY         1    4    2    2
 -5  EZZ         1    4    3    3
 -5  EXY         1    4    1    2
 -5  EYZ         1    4    2    3
 -5  EZX         1    4    3    1
 -1         1 0.00000E+00 0.00000E+00 1.99992E-03 0.00000E+00 4.12546E-19 7.19066E-19
 -1         2 0.00000E+00 0.00000E+00 1.99992E-03 0.00000E+00-6.48839E-19-8.08690E-19
 -1         3 0.00000E+00 0.00000E+00 1.99992E-03 0.00000E+00-1.00914E-19-1.19850E-18
 -1         4 0.00000E+00 0.00000E+00 1.99992E-03 0.00000E+00-2.30863E-19 1.76134E-18
 -1         5 0.00000E+00 0.00000E+00 1.99992E-03 0.00000E+00 2.96159E-19-2.53224E-19
 -1         6 0.00000E+00 0.00000E+00 1.99992E-03 0.00000E+00-2.13856E-19 8.66809E-21
 -1         7 0.00000E+00 0.00000E+00 1.99992E-03 0.00000E+00 1.93228E-18 1.41309E-18
 -1         8 0.00000E+00 0.00000E+00 1.99992E-03 0.00000E+00-2.93494E-21-3.76507E-19
 -1         9 0.00000E+00 0.00000E+00 2.00010E-03 0.00000E+00-4.18795E-19-2.04593E-19
 -1        10 0.00000E+00 0.00000E+00 2.00010E-03 0.00000E+00 4.40404E-19 3.85247E-19
 -1        11 0.00000E+00 0.00000E+00 2.00010E-03 0.00000E+00 2.54597E-19 2.23763E-19
 -1        12 0.00000E+00 0.00000E+00 2.00010E-03 0.00000E+00 2.42075E-19 1.71784E-19
 -1        13 0.00000E+00 0.00000E+00 2.00010E-03 0.00000E+00-1.72104E-19-2.53389E-20
 -1        14 0.00000E+00 0.00000E+00 2.00010E-03 0.00000E+00 4.10158E-19 8.94127E-20
 -1        15 0.00000E+00 0.00000E+00 2.00010E-03 0.00000E+00-1.16356E-18 2.49269E-19
 -1        16 0.00000E+00 0.00000E+00 2.00010E-03 0.00000E+00 4.45153E-19 4.17991E-19
 -1        17 0.00000E+00 0.00000E+00 2.00010E-03 0.00000E+00-4.86716E-20 2.27507E-19
 -1        18 0.00000E+00 0.00000E+00 2.00010E-03 0.00000E+00 6.09490E-19-7.85158E-19
 -1        19 0.00000E+00 0.00000E+00 2.00010E-03 0.00000E+00 5.23083E-19-1.12112E-19
 -1        20 0.00000E+00 0.00000E+00 2.00010E-03 0.00000E+00 2.30452E-19 4.46960E-19
 -3
    1PSTEP                       189          38           1          
  100CL  138 45565.06905          20                     0   38           1
 -4  FORC        4    1
 -5  F1          1    2    1    0
 -5  F2          1    2    2    0
 -5  F3          1    2    3    0
 -5  ALL         1    2    0    0    1ALL
 -1         1-1.35809E+01-1.35809E+01 2.28382E+01
 -1         2-1.35809E+01 1.35809E+01 2.28382E+01
 -1         3-1.35809E+01 1.35809E+01-2.28382E+01
 -1         4-1.35809E+01-1.35809E+01-2.28382E+01
 -1         5 1.35809E+01-1.35809E+01 2.28382E+01
 -1         6 1.35809E+01 1.35809E+01 2.28382E+01
 -1         7 1.35809E+01 1.35809E+01-2.28382E+01
 -1         8 1.35809E+01-1.35809E+01-2.28382E+01
 -1         9 5.43237E+01-6.92120E-15-9.13526E+01
 -1        10 5.43237E+01-5.43237E+01 6.66134E-15
 -1        11 5.43237E+01 6.03303E-15 9.13526E+01
 -1        12 5.43237E+01 5.43237E+01 2.23155E-14
 -1        13-1.39040E-14 5.43237E+01-9.13526E+01
 -1        14 1.15622E-14-5.43237E+01-9.13526E+01
 -1        15 2.06147E-16-5.43237E+01 9.13526E+01
 -1        16-1.08404E-15 5.43237E+01 9.13526E+01
 -1        17-5.43237E+01-2.29617E-15-9.13526E+01
 -1        18-5.43237E+01-5.43237E+01-1.77636E-15
 -1        19-5.43237E+01 2.97768E-16 9.13526E+01
 -1        20-5.43237E+01 5.43237E+01 8.88178E-16
 -3
    1PSTEP                       190          38           1          
  100CL  138 45565.06905          20                     0   38           1
 -4  ERROR       1    1
 -5  STR(%)      1    1    0    0
 -1         1 1.37920E-14
 -1         2 1.37920E-14
 -1         3 1.37920E-14
 -1         4 1.37920E-14
 -1         5 1.37920E-14
 -1         6 1.37920E-14
 -1         7 1.37920E-14
 -1         8 1.37920E-14
 -1         9 1.37920E-14
 -1        10 1.37920E-14
 -1        11 1.37920E-14
 -1        12 1.37920E-14
 -1        13 1.37920E-14
 -1        14 1.37920E-14
 -1        15 1.37920E-14
 -1        16 1.37920E-14
 -1        17 1.37920E-14
 -1        18 1.37920E-14
 -1        19 1.37920E-14
 -1        20 1.37920E-14
 -3
    1PSTEP                       191          39           1          
  100CL  139 46986.84556          20                     0   39           1
 -4  DISP        4    1
 -5  D1          1    2    1    0
 -5  D2          1    2    2    0
 -5  D3          1    2    3    0
 -5  ALL         1    2    0    0    1ALL
 -1         1 0.00000E+00 0.00000E+00 0.00000E+00
 -1         2 0.00000E+00 0.00000E+00 0.00000E+00
 -1         3 0.00000E+00 0.00000E+00 2.00000E-03
 -1         4 0.00000E+00 0.00000E+00 2.00000E-03
 -1         5 0.00000E+00 0.00000E+00 0.00000E+00
 -1         6 0.00000E+00 0.00000E+00 0.00000E+00
 -1         7 0.00000E+00 0.00000E+00 2.00000E-03
 -1         8 0.00000E+00 0.00000E+00 2.00000E-03
 -1         9 0.00000E+00 0.00000E+00 0.00000E+00
 -1        10 0.00000E+00 0.00000E+00 1.00000E-03
 -1        11 0.00000E+00 0.00000E+00 2.00000E-03
 -1        12 0.00000E+00 0.00000E+00 1.00000E-03
 -1        13 0.00000E+00 0.00000E+00 0.00000E+00
 -1        14 0.00000E+00 0.00000E+00 0.00000E+00
 -1        15 0.00000E+00 0.00000E+00 2.00000E-03
 -1        16 0.00000E+00 0.00000E+00 2.00000E-03
 -1        17 0.00000E+00 0.00000E+00 0.00000E+00
 -1        18 0.00000E+00 0.00000E+00 1.00000E-03
 -1        19 0.00000E+00 0.00000E+00 2.00000E-03
 -1        20 0.00000E+00 0.00000E+00 1.00000E-03
 -3
    1PSTEP                       192          39           1          
  100CL  139 46986.84556          20                     0   39           1
 -4  STRESS      6    1
 -5  SXX         1    4    1    1
 -5  SYY         1    4    2    2
 -5  SZZ         1    4    3    3
 -5  SXY         1    4    1    2
 -5  SYZ         1    4    2    3
 -5  SZX         1    4    3    1
 -1         1 1.63175E+02 1.63175E+02 2.73626E+02 0.00000E+00 2.27840E-14 3.97124E-14
 -1         2 1.63175E+02 1.63175E+02 2.73626E+02 0.00000E+00-3.58339E-14-4.46621E-14
 -1         3 1.63175E+02 1.63175E+02 2.73626E+02 0.00000E+00-5.57323E-15-6.61906E-14
 -1         4 1.63175E+02 1.63175E+02 2.73626E+02 0.00000E+00-1.27500E-14 9.72747E-14
 -1         5 1.63175E+02 1.63175E+02 2.73626E+02 0.00000E+00 1.63562E-14-1.39850E-14
 -1         6 1.63175E+02 1.63175E+02 2.73626E+02 0.00000E+00-1.18108E-14 4.78719E-16
 -1         7 1.63175E+02 1.63175E+02 2.73626E+02 0.00000E+00 1.06716E-13 7.80415E-14
 -1         8 1.63175E+02 1.63175E+02 2.73626E+02 0.00000E+00-1.62090E-16-2.07936E-14
 -1         9 1.63190E+02 1.63190E+02 2.73651E+02 0.00000E+00-2.31291E-14-1.12992E-14
 -1        10 1.63190E+02 1.63190E+02 2.73651E+02 0.00000E+00 2.43225E-14 2.12763E-14
 -1        11 1.63190E+02 1.63190E+02 2.73651E+02 0.00000E+00 1.40608E-14 1.23579E-14
 -1        12 1.63190E+02 1.63190E+02 2.73651E+02 0.00000E+00 1.33692E-14 9.48727E-15
 -1        13 1.63190E+02 1.63190E+02 2.73651E+02 0.00000E+00-9.50492E-15-1.39941E-15
 -1        14 1.63190E+02 1.63190E+02 2.73651E+02 0.00000E+00 2.26521E-14 4.93806E-15
 -1        15 1.63190E+02 1.63190E+02 2.73651E+02 0.00000E+00-6.42611E-14 1.37666E-14
 -1        16 1.63190E+02 1.63190E+02 2.73651E+02 0.00000E+00 2.45848E-14 2.30847E-14
 -1        17 1.63190E+02 1.63190E+02 2.73651E+02 0.00000E+00-2.68802E-15 1.25647E-14
 -1        18 1.63190E+02 1.63190E+02 2.73651E+02 0.00000E+00 3.36608E-14-4.33625E-14
 -1        19 1.63190E+02 1.63190E+02 2.73651E+02 0.00000E+00 2.88887E-14-6.19167E-15
 -1        20 1.63190E+02 1.63190E+02 2.73651E+02 0.00000E+00 1.27273E-14 2.46846E-14
 -3
    1PSTEP                       193          39           1          
  100CL  139 46986.84556          20                     0   39           1
 -4  TOSTRAIN    6    1
 -5  EXX         1    4    1    1
 -5  EYY         1    4    2    2
 -5  EZZ         1    4    3    3
 -5  EXY         1    4    1    2
 -5  EYZ         1    4    2    3
 -5  EZX         1    4    3    1
 -1         1 0.00000E+00 0.00000E+00 1.99992E-03 0.00000E+00 4.12546E-19 7.19066E-19
 -1         2 0.00000E+00 0.00000E+00 1.99992E-03 0.00000E+00-6.48839E-19-8.08690E-19
 -1         3 0.00000E+00 0.00000E+00 1.99992E-03 0.00000E+00-1.00914E-19-1.19850E-18
 -1         4 0.00000E+00 0.00000E+00 1.99992E-03 0.00000E+00-2.30863E-19 1.76134E-18
 -1         5 0.00000E+00 0.00000E+00 1.99992E-03 0.00000E+00 2.96159E-19-2.53224E-19
 -1         6 0.00000E+00 0.00000E+00 1.99992E-03 0.00000E+00-2.13856E-19 8.66809E-21
 -1         7 0.00000E+00 0.00000E+00 1.99992E-03 0.00000E+00 1.93228E-18 1.41309E-18
 -1         8 0.00000E+00 0.00000E+00 1.99992E-03 0.00000E+00-2.93494E-21-3.76507E-19
 -1         9 0.00000E+00 0.00000E+00 2.00010E-03 0.00000E+00-4.18795E-19-2.04593E-19
 -1        10 0.00000E+00 0.00000E+00 2.00010E-03 0.00000E+00 4.40404E-19 3.85247E-19
 -1        11 0.00000E+00 0.00000E+00 2.00010E-03 0.00000E+00 2.54597E-19 2.23763E-19
 -1        12 0.00000E+00 0.00000E+00 2.00010E-03 0.00000E+00 2.42075E-19 1.71784E-19
 -1        13 0.00000E+00 0.00000E+00 2.00010E-03 0.00000E+00-1.72104E-19-2.53389E-20
 -1        14 0.00000E+00 0.00000E+00 2.00010E-03 0.00000E+00 4.10158E-19 8.94127E-20
 -1        15 0.00000E+00 0.00000E+00 2.00010E-03 0.00000E+00-1.16356E-18 2.49269E-19
 -1        16 0.00000E+00 0.00000E+00 2.00010E-03 0.00000E+00 4.45153E-19 4.17991E-19
 -1        17 0.00000E+00 0.00000E+00 2.00010E-03 0.00000E+00-4.86716E-20 2.27507E-19
 -1        18 0.00000E+00 0.00000E+00 2.00010E-03 0.00000E+00 6.09490E-19-7.85158E-19
 -1        19 0.00000E+00 0.00000E+00 2.00010E-03 0.00000E+00 5.23083E-19-1.12112E-19
 -1        20 0.00000E+00 0.00000E+00 2.00010E-03 0.00000E+00 2.30452E-19 4.46960E-19
 -3
    1PSTEP                       194          39           1          
  100CL  139 46986.84556          20                     0   39           1
 -4  FORC        4    1
 -5  F1          1    2    1    0
 -5  F2          1    2    2    0
 -5  F3          1    2    3    0
 -5  ALL         1    2    0    0    1ALL
 -1         1-1.35985E+01-1.35985E+01 2.28031E+01
 -1         2-1.35985E+01 1.35985E+01 2.28031E+01
 -1         3-1.35985E+01 1.35985E+01-2.28031E+01
 -1         4-1.35985E+01-1.35985E+01-2.28031E+01
 -1         5 1.35985E+01-1.35985E+01 2.28031E+01
 -1         6 1.35985E+01 1.35985E+01 2.28031E+01
 -1         7 1.35985E+01 1.35985E+01-2.28031E+01
 -1         8 1.35985E+01-1.35985E+01-2.28031E+01
 -1         9 5.43938E+01-8.58632E-15-9.12123E+01
 -1        10 5.43938E+01-5.43938E+01 5.10703E-15
 -1        11 5.43938E+01 6.25486E-15 9.12123E+01
 -1        12 5.43938E+01 5.43938E+01 2.74780E-14
 -1        13-3.91182E-15 5.43938E+01-9.12123E+01
 -1        14 1.06752E-14-5.43938E+01-9.12123E+01
 -1        15 5.53405E-15-5.43938E+01 9.12123E+01
 -1        16-5.74712E-15 5.43938E+01 9.12123E+01
 -1        17-5.43938E+01-2.29448E-15-9.12123E+01
 -1        18-5.43938E+01-5.43938E+01 1.77636E-15
 -1        19-5.43938E+01 2.96076E-16 9.12123E+01
 -1        20-5.43938E+01 5.43938E+01 5.55112E-15
 -3
    1PSTEP                       195          39           1          
  100CL  139 46986.84556          20                     0   39           1
 -4  ERROR       1    1
 -5  STR(%)      1    1    0    0
 -1         1 1.70009E-14
 -1         2 1.70009E-14
 -1         3 1.70009E-14
 -1         4 1.70009E-14
 -1         5 1.70009E-14
 -1         6 1.70009E-14
 -1         7 1.70009E-14
 -1         8 1.70009E-14
 -1         9 1.70009E-14
 -1        10 1.70009E-14
 -1        11 1.70009E-14
 -1        12 1.70009E-14
 -1        13 1.70009E-14
 -1        14 1.70009E-14
 -1        15 1.70009E-14
 -1        16 1.70009E-14
 -1        17 1.70009E-14
 -1        18 1.70009E-14
 -1        19 1.70009E-14
 -1        20 1.70009E-14
 -3
    1PSTEP                       196          40           1          
  100CL  140 48408.62206          20                     0   40           1
 -4  DISP        4    1
 -5  D1          1    2    1    0
 -5  D2          1    2    2    0
 -5  D3          1    2    3    0
 -5  ALL         1    2    0    0    1ALL
 -1         1 0.00000E+00 0.00000E+00 0.00000E+00
 -1         2 0.00000E+00 0.00000E+00 0.00000E+00
 -1         3 0.00000E+00 0.00000E+00 2.00000E-03
 -1         4 0.00000E+00 0.00000E+00 2.00000E-03
 -1         5 0.00000E+00 0.00000E+00 0.00000E+00
 -1         6 0.00000E+00 0.00000E+00 0.00000E+00
 -1         7 0.00000E+00 0.00000E+00 2.00000E-03
 -1         8 0.00000E+00 0.00000E+00 2.00000E-03
 -1         9 0.00000E+00 0.00000E+00 0.00000E+00
 -1        10 0.00000E+00 0.00000E+00 1.00000E-03
 -1        11 0.00000E+00 0.00000E+00 2.00000E-03
 -1        12 0.00000E+00 0.00000E+00 1.00000E-03
 -1        13 0.00000E+00 0.00000E+00 0.00000E+00
 -1        14 0.00000E+00 0.00000E+00 0.00000E+00
 -1        15 0.00000E+00 0.00000E+00 2.00000E-03
 -1        16 0.00000E+00 0.00000E+00 2.00000E-03
 -1        17 0.00000E+00 0.00000E+00 0.00000E+00
 -1        18 0.00000E+00 0.00000E+00 1.00000E-03
 -1        19 0.00000E+00 0.00000E+00 2.00000E-03
 -1        20 0.00000E+00 0.00000E+00 1.00000E-03
 -3
    1PSTEP                       197          40           1          
  100CL  140 48408.62206          20                     0   40           1
 -4  STRESS      6    1
 -5  SXX         1    4    1    1
 -5  SYY         1    4    2    2
 -5  SZZ         1    4    3    3
 -5  SXY         1    4    1    2
 -5  SYZ         1    4    2    3
 -5  SZX         1    4    3    1
 -1         1 1.63384E+02 1.63384E+02 2.73208E+02 0.00000E+00 2.26545E-14 3.94867E-14
 -1         2 1.63384E+02 1.63384E+02 2.73208E+02 0.00000E+00-3.56303E-14-4.44083E-14
 -1         3 1.63384E+02 1.63384E+02 2.73208E+02 0.00000E+00-5.54157E-15-6.58144E-14
 -1         4 1.63384E+02 1.63384E+02 2.73208E+02 0.00000E+00-1.26776E-14 9.67219E-14
 -1         5 1.63384E+02 1.63384E+02 2.73208E+02 0.00000E+00 1.62632E-14-1.39055E-14
 -1         6 1.63384E+02 1.63384E+02 2.73208E+02 0.00000E+00-1.17437E-14 4.75999E-16
 -1         7 1.63384E+02 1.63384E+02 2.73208E+02 0.00000E+00 1.06109E-13 7.75981E-14
 -1         8 1.63384E+02 1.63384E+02 2.73208E+02 0.00000E+00-1.61169E-16-2.06755E-14
 -1         9 1.63399E+02 1.63399E+02 2.73232E+02 0.00000E+00-2.29977E-14-1.12350E-14
 -1        10 1.63399E+02 1.63399E+02 2.73232E+02 0.00000E+00 2.41843E-14 2.11554E-14
 -1        11 1.63399E+02 1.63399E+02 2.73232E+02 0.00000E+00 1.39809E-14 1.22877E-14
 -1        12 1.63399E+02 1.63399E+02 2.73232E+02 0.00000E+00 1.32933E-14 9.43336E-15
 -1        13 1.63399E+02 1.63399E+02 2.73232E+02 0.00000E+00-9.45092E-15-1.39146E-15
 -1        14 1.63399E+02 1.63399E+02 2.73232E+02 0.00000E+00 2.25234E-14 4.91000E-15
 -1        15 1.63399E+02 1.63399E+02 2.73232E+02 0.00000E+00-6.38959E-14 1.36883E-14
 -1        16 1.63399E+02 1.63399E+02 2.73232E+02 0.00000E+00 2.44451E-14 2.29535E-14
 -1        17 1.63399E+02 1.63399E+02 2.73232E+02 0.00000E+00-2.67275E-15 1.24933E-14
 -1        18 1.63399E+02 1.63399E+02 2.73232E+02 0.00000E+00 3.34695E-14-4.31161E-14
 -1        19 1.63399E+02 1.63399E+02 2.73232E+02 0.00000E+00 2.87245E-14-6.15649E-15
 -1        20 1.63399E+02 1.63399E+02 2.73232E+02 0.00000E+00 1.26550E-14 2.45443E-14
 -3
    1PSTEP                       198          40           1          
  100CL  140 48408.62206          20                     0   40           1
 -4  TOSTRAIN    6    1
 -5  EXX         1    4    1    1
 -5  EYY         1    4    2    2
 -5  EZZ         1    4    3    3
 -5  EXY         1    4    1    2
 -5  EYZ         1    4    2    3
 -5  EZX         1    4    3    1
 -1         1 0.00000E+00 0.00000E+00 1.99992E-03 0.00000E+00 4.12546E-19 7.19066E-19
 -1         2 0.00000E+00 0.00000E+00 1.99992E-03 0.00000E+00-6.48839E-19-8.08690E-19
 -1         3 0.00000E+00 0.00000E+00 1.99992E-03 0.00000E+00-1.00914E-19-1.19850E-18
 -1         4 0.00000E+00 0.00000E+00 1.99992E-03 0.00000E+00-2.30863E-19 1.76134E-18
 -1         5 0.00000E+00 0.00000E+00 1.99992E-03 0.00000E+00 2.96159E-19-2.53224E-19
 -1         6 0.00000E+00 0.00000E+00 1.99992E-03 0.00000E+00-2.13856E-19 8.66809E-21
 -1         7 0.00000E+00 0.00000E+00 1.99992E-03 0.00000E+00 1.93228E-18 1.41309E-18
 -1         8 0.00000E+00 0.00000E+00 1.99992E-03 0.00000E+00-2.93494E-21-3.76507E-19
 -1         9 0.00000E+00 0.00000E+00 2.00010E-03 0.00000E+00-4.18795E-19-2.04593E-19
 -1        10 0.00000E+00 0.00000E+00 2.00010E-03 0.00000E+00 4.40404E-19 3.85247E-19
 -1        11 0.00000E+00 0.00000E+00 2.00010E-03 0.00000E+00 2.54597E-19 2.23763E-19
 -1        12 0.00000E+00 0.00000E+00 2.00010E-03 0.00000E+00 2.42075E-19 1.71784E-19
 -1        13 0.00000E+00 0.00000E+00 2.00010E-03 0.00000E+00-1.72104E-19-2.53389E-20
 -1        14 0.00000E+00 0.00000E+00 2.00010E-03 0.00000E+00 4.10158E-19 8.94127E-20
 -1        15 0.00000E+00 0.00000E+00 2.00010E-03 0.00000E+00-1.16356E-18 2.49269E-19
 -1        16 0.00000E+00 0.00000E+00 2.00010E-03 0.00000E+00 4.45153E-19 4.17991E-19
 -1        17 0.00000E+00 0.00000E+00 2.00010E-03 0.00000E+00-4.86716E-20 2.27507E-19
 -1        18 0.00000E+00 0.00000E+00 2.00010E-03 0.00000E+00 6.09490E-19-7.85158E-19
 -1        19 0.00000E+00 0.00000E+00 2.00010E-03 0.00000E+00 5.23083E-19-1.12112E-19
 -1        20 0.00000E+00 0.00000E+00 2.00010E-03 0.00000E+00 2.30452E-19 4.46960E-19
 -3
    1PSTEP                       199          40           1          
  100CL  140 48408.62206          20                     0   40           1
 -4  FORC        4    1
 -5  F1          1    2    1    0
 -5  F2          1    2    2    0
 -5  F3          1    2    3    0
 -5  ALL         1    2    0    0    1ALL
 -1         1-1.36159E+01-1.36159E+01 2.27682E+01
 -1         2-1.36159E+01 1.36159E+01 2.27682E+01
 -1         3-1.36159E+01 1.36159E+01-2.27682E+01
 -1         4-1.36159E+01-1.36159E+01-2.27682E+01
 -1         5 1.36159E+01-1.36159E+01 2.27682E+01
 -1         6 1.36159E+01 1.36159E+01 2.27682E+01
 -1         7 1.36159E+01 1.36159E+01-2.27682E+01
 -1         8 1.36159E+01-1.36159E+01-2.27682E+01
 -1         9 5.44636E+01-7.83671E-15-9.10729E+01
 -1        10 5.44636E+01-5.44636E+01 0.00000E+00
 -1        11 5.44636E+01 3.36806E-15 9.10729E+01
 -1        12 5.44636E+01 5.44636E+01 1.30729E-14
 -1        13-5.21618E-15 5.44636E+01-9.10729E+01
 -1        14 1.17866E-14-5.44636E+01-9.10729E+01
 -1        15 2.03811E-16-5.44636E+01 9.10729E+01
 -1        16-1.97251E-15 5.44636E+01 9.10729E+01
 -1        17-5.44636E+01-5.16438E-16-9.10729E+01
 -1        18-5.44636E+01-5.44636E+01 1.77636E-15
 -1        19-5.44636E+01 2.07075E-15 9.10729E+01
 -1        20-5.44636E+01 5.44636E+01 7.99361E-15
 -3
    1PSTEP                       200          40           1          
  100CL  140 48408.62206          20                     0   40           1
 -4  ERROR       1    1
 -5  STR(%)      1    1    0    0
 -1         1 6.38509E-15
 -1         2 6.38509E-15
 -1         3 6.38509E-15
 -1         4 6.38509E-15
 -1         5 6.38509E-15
 -1         6 6.38509E-15
 -1         7 6.38509E-15
 -1         8 6.38509E-15
 -1         9 6.38509E-15
 -1        10 6.38509E-15
 -1        11 6.38509E-15
 -1        12 6.38509E-15
 -1        13 6.38509E-15
 -1        14 6.38509E-15
 -1        15 6.38509E-15
 -1        16 6.38509E-15
 -1        17 6.38509E-15
 -1        18 6.38509E-15
 -1        19 6.38509E-15
 -1        20 6.38509E-15
 -3
    1PSTEP                       201          41           1          
  100CL  141 50541.28682          20                     0   41           1
 -4  DISP        4    1
 -5  D1          1    2    1    0
 -5  D2          1    2    2    0
 -5  D3          1    2    3    0
 -5  ALL         1    2    0    0    1ALL
 -1         1 0.00000E+00 0.00000E+00 0.00000E+00
 -1         2 0.00000E+00 0.00000E+00 0.00000E+00
 -1         3 0.00000E+00 0.00000E+00 2.00000E-03
 -1         4 0.00000E+00 0.00000E+00 2.00000E-03
 -1         5 0.00000E+00 0.00000E+00 0.00000E+00
 -1         6 0.00000E+00 0.00000E+00 0.00000E+00
 -1         7 0.00000E+00 0.00000E+00 2.00000E-03
 -1         8 0.00000E+00 0.00000E+00 2.00000E-03
 -1         9 0.00000E+00 0.00000E+00 0.00000E+00
 -1        10 0.00000E+00 0.00000E+00 1.00000E-03
 -1        11 0.00000E+00 0.00000E+00 2.00000E-03
 -1        12 0.00000E+00 0.00000E+00 1.00000E-03
 -1        13 0.00000E+00 0.00000E+00 0.00000E+00
 -1        14 0.00000E+00 0.00000E+00 0.00000E+00
 -1        15 0.00000E+00 0.00000E+00 2.00000E-03
 -1        16 0.00000E+00 0.00000E+00 2.00000E-03
 -1        17 0.00000E+00 0.00000E+00 0.00000E+00
 -1        18 0.00000E+00 0.00000E+00 1.00000E-03
 -1        19 0.00000E+00 0.00000E+00 2.00000E-03
 -1        20 0.00000E+00 0.00000E+00 1.00000E-03
 -3
    1PSTEP                       202          41           1          
  100CL  141 50541.28682          20                     0   41           1
 -4  STRESS      6    1
 -5  SXX         1    4    1    1
 -5  SYY         1    4    2    2
 -5  SZZ         1    4    3    3
 -5  SXY         1    4    1    2
 -5  SYZ         1    4    2    3
 -5  SZX         1    4    3    1
 -1         1 1.63695E+02 1.63695E+02 2.72585E+02 0.00000E+00 2.24620E-14 3.91511E-14
 -1         2 1.63695E+02 1.63695E+02 2.72585E+02 0.00000E+00-3.53275E-14-4.40309E-14
 -1         3 1.63695E+02 1.63695E+02 2.72585E+02 0.00000E+00-5.49447E-15-6.52551E-14
 -1         4 1.63695E+02 1.63695E+02 2.72585E+02 0.00000E+00-1.25698E-14 9.58999E-14
 -1         5 1.63695E+02 1.63695E+02 2.72585E+02 0.00000E+00 1.61250E-14-1.37874E-14
 -1         6 1.63695E+02 1.63695E+02 2.72585E+02 0.00000E+00-1.16439E-14 4.71953E-16
 -1         7 1.63695E+02 1.63695E+02 2.72585E+02 0.00000E+00 1.05207E-13 7.69386E-14
 -1         8 1.63695E+02 1.63695E+02 2.72585E+02 0.00000E+00-1.59799E-16-2.04997E-14
 -1         9 1.63710E+02 1.63710E+02 2.72610E+02 0.00000E+00-2.28022E-14-1.11395E-14
 -1        10 1.63710E+02 1.63710E+02 2.72610E+02 0.00000E+00 2.39788E-14 2.09756E-14
 -1        11 1.63710E+02 1.63710E+02 2.72610E+02 0.00000E+00 1.38621E-14 1.21833E-14
 -1        12 1.63710E+02 1.63710E+02 2.72610E+02 0.00000E+00 1.31803E-14 9.35318E-15
 -1        13 1.63710E+02 1.63710E+02 2.72610E+02 0.00000E+00-9.37059E-15-1.37963E-15
 -1        14 1.63710E+02 1.63710E+02 2.72610E+02 0.00000E+00 2.23320E-14 4.86827E-15
 -1        15 1.63710E+02 1.63710E+02 2.72610E+02 0.00000E+00-6.33529E-14 1.35720E-14
 -1        16 1.63710E+02 1.63710E+02 2.72610E+02 0.00000E+00 2.42373E-14 2.27584E-14
 -1        17 1.63710E+02 1.63710E+02 2.72610E+02 0.00000E+00-2.65003E-15 1.23871E-14
 -1        18 1.63710E+02 1.63710E+02 2.72610E+02 0.00000E+00 3.31850E-14-4.27497E-14
 -1        19 1.63710E+02 1.63710E+02 2.72610E+02 0.00000E+00 2.84804E-14-6.10417E-15
 -1        20 1.63710E+02 1.63710E+02 2.72610E+02 0.00000E+00 1.25474E-14 2.43357E-14
 -3
    1PSTEP                       203          41           1          
  100CL  141 50541.28682          20                     0   41           1
 -4  TOSTRAIN    6    1
 -5  EXX         1    4    1    1
 -5  EYY         1    4    2    2
 -5  EZZ         1    4    3    3
 -5  EXY         1    4    1    2
 -5  EYZ         1    4    2    3
 -5  EZX         1    4    3    1
 -1         1 0.00000E+00 0.00000E+00 1.99992E-03 0.00000E+00 4.12546E-19 7.19066E-19
 -1         2 0.00000E+00 0.00000E+00 1.99992E-03 0.00000E+00-6.48839E-19-8.08690E-19
 -1         3 0.00000E+00 0.00000E+00 1.99992E-03 0.00000E+00-1.00914E-19-1.19850E-18
 -1         4 0.00000E+00 0.00000E+00 1.99992E-03 0.00000E+00-2.30863E-19 1.76134E-18
 -1         5 0.00000E+00 0.00000E+00 1.99992E-03 0.00000E+00 2.96159E-19-2.53224E-19
 -1         6 0.00000E+00 0.00000E+00 1.99992E-03 0.00000E+00-2.13856E-19 8.66809E-21
 -1         7 0.00000E+00 0.00000E+00 1.99992E-03 0.00000E+00 1.93228E-18 1.41309E-18
 -1         8 0.00000E+00 0.00000E+00 1.99992E-03 0.00000E+00-2.93494E-21-3.76507E-19
 -1         9 0.00000E+00 0.00000E+00 2.00010E-03 0.00000E+00-4.18795E-19-2.04593E-19
 -1        10 0.00000E+00 0.00000E+00 2.00010E-03 0.00000E+00 4.40404E-19 3.85247E-19
 -1        11 0.00000E+00 0.00000E+00 2.00010E-03 0.00000E+00 2.54597E-19 2.23763E-19
 -1        12 0.00000E+00 0.00000E+00 2.00010E-03 0.00000E+00 2.42075E-19 1.71784E-19
 -1        13 0.00000E+00 0.00000E+00 2.00010E-03 0.00000E+00-1.72104E-19-2.53389E-20
 -1        14 0.00000E+00 0.00000E+00 2.00010E-03 0.00000E+00 4.10158E-19 8.94127E-20
 -1        15 0.00000E+00 0.00000E+00 2.00010E-03 0.00000E+00-1.16356E-18 2.49269E-19
 -1        16 0.00000E+00 0.00000E+00 2.00010E-03 0.00000E+00 4.45153E-19 4.17991E-19
 -1        17 0.00000E+00 0.00000E+00 2.00010E-03 0.00000E+00-4.86716E-20 2.27507E-19
 -1        18 0.00000E+00 0.00000E+00 2.00010E-03 0.00000E+00 6.09490E-19-7.85158E-19
 -1        19 0.00000E+00 0.00000E+00 2.00010E-03 0.00000E+00 5.23083E-19-1.12112E-19
 -1        20 0.00000E+00 0.00000E+00 2.00010E-03 0.00000E+00 2.30452E-19 4.46960E-19
 -3
    1PSTEP                       204          41           1          
  100CL  141 50541.28682          20                     0   41           1
 -4  FORC        4    1
 -5  F1          1    2    1    0
 -5  F2          1    2    2    0
 -5  F3          1    2    3    0
 -5  ALL         1    2    0    0    1ALL
 -1         1-1.36418E+01-1.36418E+01 2.27164E+01
 -1         2-1.36418E+01 1.36418E+01 2.27164E+01
 -1         3-1.36418E+01 1.36418E+01-2.27164E+01
 -1         4-1.36418E+01-1.36418E+01-2.27164E+01
 -1         5 1.36418E+01-1.36418E+01 2.27164E+01
 -1         6 1.36418E+01 1.36418E+01 2.27164E+01
 -1         7 1.36418E+01 1.36418E+01-2.27164E+01
 -1         8 1.36418E+01-1.36418E+01-2.27164E+01
 -1         9 5.45673E+01-7.80864E-15-9.08654E+01
 -1        10 5.45673E+01-5.45673E+01 8.43769E-15
 -1        11 5.45673E+01 6.92046E-15 9.08654E+01
 -1        12 5.45673E+01 5.45673E+01 1.86795E-14
 -1        13-7.15885E-15 5.45673E+01-9.08654E+01
 -1        14 1.15663E-14-5.45673E+01-9.08654E+01
 -1        15 1.97844E-15-5.45673E+01 9.08654E+01
 -1        16-2.86091E-15 5.45673E+01 9.08654E+01
 -1        17-5.45673E+01 3.74242E-16-9.08654E+01
 -1        18-5.45673E+01-5.45673E+01 0.00000E+00
 -1        19-5.45673E+01 3.84461E-15 9.08654E+01
 -1        20-5.45673E+01 5.45673E+01-3.10862E-15
 -3
    1PSTEP                       205          41           1          
  100CL  141 50541.28682          20                     0   41           1
 -4  ERROR       1    1
 -5  STR(%)      1    1    0    0
 -1         1 5.33305E-15
 -1         2 5.33305E-15
 -1         3 5.33305E-15
 -1         4 5.33305E-15
 -1         5 5.33305E-15
 -1         6 5.33305E-15
 -1         7 5.33305E-15
 -1         8 5.33305E-15
 -1         9 5.33305E-15
 -1        10 5.33305E-15
 -1        11 5.33305E-15
 -1        12 5.33305E-15
 -1        13 5.33305E-15
 -1        14 5.33305E-15
 -1        15 5.33305E-15
 -1        16 5.33305E-15
 -1        17 5.33305E-15
 -1        18 5.33305E-15
 -1        19 5.33305E-15
 -1        20 5.33305E-15
 -3
    1PSTEP                       206          42           1          
  100CL  142 52071.05489          20                     0   42           1
 -4  DISP        4    1
 -5  D1          1    2    1    0
 -5  D2          1    2    2    0
 -5  D3          1    2    3    0
 -5  ALL         1    2    0    0    1ALL
 -1         1 0.00000E+00 0.00000E+00 0.00000E+00
 -1         2 0.00000E+00 0.00000E+00 0.00000E+00
 -1         3 0.00000E+00 0.00000E+00 2.00000E-03
 -1         4 0.00000E+00 0.00000E+00 2.00000E-03
 -1         5 0.00000E+00 0.00000E+00 0.00000E+00
 -1         6 0.00000E+00 0.00000E+00 0.00000E+00
 -1         7 0.00000E+00 0.00000E+00 2.00000E-03
 -1         8 0.00000E+00 0.00000E+00 2.00000E-03
 -1         9 0.00000E+00 0.00000E+00 0.00000E+00
 -1        10 0.00000E+00 0.00000E+00 1.00000E-03
 -1        11 0.00000E+00 0.00000E+00 2.00000E-03
 -1        12 0.00000E+00 0.00000E+00 1.00000E-03
 -1        13 0.00000E+00 0.00000E+00 0.00000E+00
 -1        14 0.00000E+00 0.00000E+00 0.00000E+00
 -1        15 0.00000E+00 0.00000E+00 2.00000E-03
 -1        16 0.00000E+00 0.00000E+00 2.00000E-03
 -1        17 0.00000E+00 0.00000E+00 0.00000E+00
 -1        18 0.00000E+00 0.00000E+00 1.00000E-03
 -1        19 0.00000E+00 0.00000E+00 2.00000E-03
 -1        20 0.00000E+00 0.00000E+00 1.00000E-03
 -3
    1PSTEP                       207          42           1          
  100CL  142 52071.05489          20                     0   42           1
 -4  STRESS      6    1
 -5  SXX         1    4    1    1
 -5  SYY         1    4    2    2
 -5  SZZ         1    4    3    3
 -5  SXY         1    4    1    2
 -5  SYZ         1    4    2    3
 -5  SZX         1    4    3    1
 -1         1 1.63917E+02 1.63917E+02 2.72142E+02 0.00000E+00 2.23247E-14 3.89119E-14
 -1         2 1.63917E+02 1.63917E+02 2.72142E+02 0.00000E+00-3.51116E-14-4.37618E-14
 -1         3 1.63917E+02 1.63917E+02 2.72142E+02 0.00000E+00-5.46089E-15-6.48563E-14
 -1         4 1.63917E+02 1.63917E+02 2.72142E+02 0.00000E+00-1.24930E-14 9.53138E-14
 -1         5 1.63917E+02 1.63917E+02 2.72142E+02 0.00000E+00 1.60265E-14-1.37031E-14
 -1         6 1.63917E+02 1.63917E+02 2.72142E+02 0.00000E+00-1.15727E-14 4.69069E-16
 -1         7 1.63917E+02 1.63917E+02 2.72142E+02 0.00000E+00 1.04564E-13 7.64684E-14
 -1         8 1.63917E+02 1.63917E+02 2.72142E+02 0.00000E+00-1.58822E-16-2.03745E-14
 -1         9 1.63932E+02 1.63932E+02 2.72166E+02 0.00000E+00-2.26629E-14-1.10714E-14
 -1        10 1.63932E+02 1.63932E+02 2.72166E+02 0.00000E+00 2.38322E-14 2.08474E-14
 -1        11 1.63932E+02 1.63932E+02 2.72166E+02 0.00000E+00 1.37774E-14 1.21088E-14
 -1        12 1.63932E+02 1.63932E+02 2.72166E+02 0.00000E+00 1.30997E-14 9.29603E-15
 -1        13 1.63932E+02 1.63932E+02 2.72166E+02 0.00000E+00-9.31333E-15-1.37120E-15
 -1        14 1.63932E+02 1.63932E+02 2.72166E+02 0.00000E+00 2.21955E-14 4.83852E-15
 -1        15 1.63932E+02 1.63932E+02 2.72166E+02 0.00000E+00-6.29657E-14 1.34891E-14
 -1        16 1.63932E+02 1.63932E+02 2.72166E+02 0.00000E+00 2.40892E-14 2.26194E-14
 -1        17 1.63932E+02 1.63932E+02 2.72166E+02 0.00000E+00-2.63384E-15 1.23114E-14
 -1        18 1.63932E+02 1.63932E+02 2.72166E+02 0.00000E+00 3.29822E-14-4.24884E-14
 -1        19 1.63932E+02 1.63932E+02 2.72166E+02 0.00000E+00 2.83064E-14-6.06686E-15
 -1        20 1.63932E+02 1.63932E+02 2.72166E+02 0.00000E+00 1.24708E-14 2.41870E-14
 -3
    1PSTEP                       208          42           1          
  100CL  142 52071.05489          20                     0   42           1
 -4  TOSTRAIN    6    1
 -5  EXX         1    4    1    1
 -5  EYY         1    4    2    2
 -5  EZZ         1    4    3    3
 -5  EXY         1    4    1    2
 -5  EYZ         1    4    2    3
 -5  EZX         1    4    3    1
 -1         1 0.00000E+00 0.00000E+00 1.99992E-03 0.00000E+00 4.12546E-19 7.19066E-19
 -1         2 0.00000E+00 0.00000E+00 1.99992E-03 0.00000E+00-6.48839E-19-8.08690E-19
 -1         3 0.00000E+00 0.00000E+00 1.99992E-03 0.00000E+00-1.00914E-19-1.19850E-18
 -1         4 0.00000E+00 0.00000E+00 1.99992E-03 0.00000E+00-2.30863E-19 1.76134E-18
 -1         5 0.00000E+00 0.00000E+00 1.99992E-03 0.00000E+00 2.96159E-19-2.53224E-19
 -1         6 0.00000E+00 0.00000E+00 1.99992E-03 0.00000E+00-2.13856E-19 8.66809E-21
 -1         7 0.00000E+00 0.00000E+00 1.99992E-03 0.00000E+00 1.93228E-18 1.41309E-18
 -1         8 0.00000E+00 0.00000E+00 1.99992E-03 0.00000E+00-2.93494E-21-3.76507E-19
 -1         9 0.00000E+00 0.00000E+00 2.00010E-03 0.00000E+00-4.18795E-19-2.04593E-19
 -1        10 0.00000E+00 0.00000E+00 2.00010E-03 0.00000E+00 4.40404E-19 3.85247E-19
 -1        11 0.00000E+00 0.00000E+00 2.00010E-03 0.00000E+00 2.54597E-19 2.23763E-19
 -1        12 0.00000E+00 0.00000E+00 2.00010E-03 0.00000E+00 2.42075E-19 1.71784E-19
 -1        13 0.00000E+00 0.00000E+00 2.00010E-03 0.00000E+00-1.72104E-19-2.53389E-20
 -1        14 0.00000E+00 0.00000E+00 2.00010E-03 0.00000E+00 4.10158E-19 8.94127E-20
 -1        15 0.00000E+00 0.00000E+00 2.00010E-03 0.00000E+00-1.16356E-18 2.49269E-19
 -1        16 0.00000E+00 0.00000E+00 2.00010E-03 0.00000E+00 4.45153E-19 4.17991E-19
 -1        17 0.00000E+00 0.00000E+00 2.00010E-03 0.00000E+00-4.86716E-20 2.27507E-19
 -1        18 0.00000E+00 0.00000E+00 2.00010E-03 0.00000E+00 6.09490E-19-7.85158E-19
 -1        19 0.00000E+00 0.00000E+00 2.00010E-03 0.00000E+00 5.23083E-19-1.12112E-19
 -1        20 0.00000E+00 0.00000E+00 2.00010E-03 0.00000E+00 2.30452E-19 4.46960E-19
 -3
    1PSTEP                       209          42           1          
  100CL  142 52071.05489          20                     0   42           1
 -4  FORC        4    1
 -5  F1          1    2    1    0
 -5  F2          1    2    2    0
 -5  F3          1    2    3    0
 -5  ALL         1    2    0    0    1ALL
 -1         1-1.36603E+01-1.36603E+01 2.26794E+01
 -1         2-1.36603E+01 1.36603E+01 2.26794E+01
 -1         3-1.36603E+01 1.36603E+01-2.26794E+01
 -1         4-1.36603E+01-1.36603E+01-2.26794E+01
 -1         5 1.36603E+01-1.36603E+01 2.26794E+01
 -1         6 1.36603E+01 1.36603E+01 2.26794E+01
 -1         7 1.36603E+01 1.36603E+01-2.26794E+01
 -1         8 1.36603E+01-1.36603E+01-2.26794E+01
 -1         9 5.46412E+01-5.14387E-15-9.07175E+01
 -1        10 5.46412E+01-5.46412E+01 4.88498E-15
 -1        11 5.46412E+01 6.47614E-15 9.07175E+01
 -1        12 5.46412E+01 5.46412E+01 2.03448E-14
 -1        13 5.30356E-15 5.46412E+01-9.07175E+01
 -1        14 1.13455E-14-5.46412E+01-9.07175E+01
 -1        15-6.90458E-15-5.46412E+01 9.07175E+01
 -1        16 4.02231E-15 5.46412E+01 9.07175E+01
 -1        17-5.46412E+01-5.12152E-16-9.07175E+01
 -1        18-5.46412E+01-5.46412E+01 7.10543E-15
 -1        19-5.46412E+01 2.90108E-16 9.07175E+01
 -1        20-5.46412E+01 5.46412E+01 3.99680E-15
 -3
    1PSTEP                       210          42           1          
  100CL  142 52071.05489          20                     0   42           1
 -4  ERROR       1    1
 -5  STR(%)      1    1    0    0
 -1         1 3.20505E-15
 -1         2 3.20505E-15
 -1         3 3.20505E-15
 -1         4 3.20505E-15
 -1         5 3.20505E-15
 -1         6 3.20505E-15
 -1         7 3.20505E-15
 -1         8 3.20505E-15
 -1         9 3.20505E-15
 -1        10 3.20505E-15
 -1        11 3.20505E-15
 -1        12 3.20505E-15
 -1        13 3.20505E-15
 -1        14 3.20505E-15
 -1        15 3.20505E-15
 -1        16 3.20505E-15
 -1        17 3.20505E-15
 -1        18 3.20505E-15
 -1        19 3.20505E-15
 -1        20 3.20505E-15
 -3
    1PSTEP                       211          43           1          
  100CL  143 53600.82296          20                     0   43           1
 -4  DISP        4    1
 -5  D1          1    2    1    0
 -5  D2          1    2    2    0
 -5  D3          1    2    3    0
 -5  ALL         1    2    0    0    1ALL
 -1         1 0.00000E+00 0.00000E+00 0.00000E+00
 -1         2 0.00000E+00 0.00000E+00 0.00000E+00
 -1         3 0.00000E+00 0.00000E+00 2.00000E-03
 -1         4 0.00000E+00 0.00000E+00 2.00000E-03
 -1         5 0.00000E+00 0.00000E+00 0.00000E+00
 -1         6 0.00000E+00 0.00000E+00 0.00000E+00
 -1         7 0.00000E+00 0.00000E+00 2.00000E-03
 -1         8 0.00000E+00 0.00000E+00 2.00000E-03
 -1         9 0.00000E+00 0.00000E+00 0.00000E+00
 -1        10 0.00000E+00 0.00000E+00 1.00000E-03
 -1        11 0.00000E+00 0.00000E+00 2.00000E-03
 -1        12 0.00000E+00 0.00000E+00 1.00000E-03
 -1        13 0.00000E+00 0.00000E+00 0.00000E+00
 -1        14 0.00000E+00 0.00000E+00 0.00000E+00
 -1        15 0.00000E+00 0.00000E+00 2.00000E-03
 -1        16 0.00000E+00 0.00000E+00 2.00000E-03
 -1        17 0.00000E+00 0.00000E+00 0.00000E+00
 -1        18 0.00000E+00 0.00000E+00 1.00000E-03
 -1        19 0.00000E+00 0.00000E+00 2.00000E-03
 -1        20 0.00000E+00 0.00000E+00 1.00000E-03
 -3
    1PSTEP                       212          43           1          
  100CL  143 53600.82296          20                     0   43           1
 -4  STRESS      6    1
 -5  SXX         1    4    1    1
 -5  SYY         1    4    2    2
 -5  SZZ         1    4    3    3
 -5  SXY         1    4    1    2
 -5  SYZ         1    4    2    3
 -5  SZX         1    4    3    1
 -1         1 1.64138E+02 1.64138E+02 2.71701E+02 0.00000E+00 2.21883E-14 3.86741E-14
 -1         2 1.64138E+02 1.64138E+02 2.71701E+02 0.00000E+00-3.48970E-14-4.34944E-14
 -1         3 1.64138E+02 1.64138E+02 2.71701E+02 0.00000E+00-5.42752E-15-6.44599E-14
 -1         4 1.64138E+02 1.64138E+02 2.71701E+02 0.00000E+00-1.24167E-14 9.47313E-14
 -1         5 1.64138E+02 1.64138E+02 2.71701E+02 0.00000E+00 1.59285E-14-1.36194E-14
 -1         6 1.64138E+02 1.64138E+02 2.71701E+02 0.00000E+00-1.15020E-14 4.66203E-16
 -1         7 1.64138E+02 1.64138E+02 2.71701E+02 0.00000E+00 1.03925E-13 7.60011E-14
 -1         8 1.64138E+02 1.64138E+02 2.71701E+02 0.00000E+00-1.57852E-16-2.02499E-14
 -1         9 1.64152E+02 1.64152E+02 2.71725E+02 0.00000E+00-2.25244E-14-1.10038E-14
 -1        10 1.64152E+02 1.64152E+02 2.71725E+02 0.00000E+00 2.36866E-14 2.07200E-14
 -1        11 1.64152E+02 1.64152E+02 2.71725E+02 0.00000E+00 1.36932E-14 1.20348E-14
 -1        12 1.64152E+02 1.64152E+02 2.71725E+02 0.00000E+00 1.30197E-14 9.23922E-15
 -1        13 1.64152E+02 1.64152E+02 2.71725E+02 0.00000E+00-9.25641E-15-1.36282E-15
 -1        14 1.64152E+02 1.64152E+02 2.71725E+02 0.00000E+00 2.20599E-14 4.80895E-15
 -1        15 1.64152E+02 1.64152E+02 2.71725E+02 0.00000E+00-6.25809E-14 1.34066E-14
 -1        16 1.64152E+02 1.64152E+02 2.71725E+02 0.00000E+00 2.39420E-14 2.24811E-14
 -1        17 1.64152E+02 1.64152E+02 2.71725E+02 0.00000E+00-2.61774E-15 1.22362E-14
 -1        18 1.64152E+02 1.64152E+02 2.71725E+02 0.00000E+00 3.27807E-14-4.22288E-14
 -1        19 1.64152E+02 1.64152E+02 2.71725E+02 0.00000E+00 2.81334E-14-6.02979E-15
 -1        20 1.64152E+02 1.64152E+02 2.71725E+02 0.00000E+00 1.23946E-14 2.40392E-14
 -3
    1PSTEP                       213          43           1          
  100CL  143 53600.82296          20                     0   43           1
 -4  TOSTRAIN    6    1
 -5  EXX         1    4    1    1
 -5  EYY         1    4    2    2
 -5  EZZ         1    4    3    3
 -5  EXY         1    4    1    2
 -5  EYZ         1    4    2    3
 -5  EZX         1    4    3    1
 -1         1 0.00000E+00 0.00000E+00 1.99992E-03 0.00000E+00 4.12546E-19 7.19066E-19
 -1         2 0.00000E+00 0.00000E+00 1.99992E-03 0.00000E+00-6.48839E-19-8.08690E-19
 -1         3 0.00000E+00 0.00000E+00 1.99992E-03 0.00000E+00-1.00914E-19-1.19850E-18
 -1         4 0.00000E+00 0.00000E+00 1.99992E-03 0.00000E+00-2.30863E-19 1.76134E-18
 -1         5 0.00000E+00 0.00000E+00 1.99992E-03 0.00000E+00 2.96159E-19-2.53224E-19
 -1         6 0.00000E+00 0.00000E+00 1.99992E-03 0.00000E+00-2.13856E-19 8.66809E-21
 -1         7 0.00000E+00 0.00000E+00 1.99992E-03 0.00000E+00 1.93228E-18 1.41309E-18
 -1         8 0.00000E+00 0.00000E+00 1.99992E-03 0.00000E+00-2.93494E-21-3.76507E-19
 -1         9 0.00000E+00 0.00000E+00 2.00010E-03 0.00000E+00-4.18795E-19-2.04593E-19
 -1        10 0.00000E+00 0.00000E+00 2.00010E-03 0.00000E+00 4.40404E-19 3.85247E-19
 -1        11 0.00000E+00 0.00000E+00 2.00010E-03 0.00000E+00 2.54597E-19 2.23763E-19
 -1        12 0.00000E+00 0.00000E+00 2.00010E-03 0.00000E+00 2.42075E-19 1.71784E-19
 -1        13 0.00000E+00 0.00000E+00 2.00010E-03 0.00000E+00-1.72104E-19-2.53389E-20
 -1        14 0.00000E+00 0.00000E+00 2.00010E-03 0.00000E+00 4.10158E-19 8.94127E-20
 -1        15 0.00000E+00 0.00000E+00 2.00010E-03 0.00000E+00-1.16356E-18 2.49269E-19
 -1        16 0.00000E+00 0.00000E+00 2.00010E-03 0.00000E+00 4.45153E-19 4.17991E-19
 -1        17 0.00000E+00 0.00000E+00 2.00010E-03 0.00000E+00-4.86716E-20 2.27507E-19
 -1        18 0.00000E+00 0.00000E+00 2.00010E-03 0.00000E+00 6.09490E-19-7.85158E-19
 -1        19 0.00000E+00 0.00000E+00 2.00010E-03 0.00000E+00 5.23083E-19-1.12112E-19
 -1        20 0.00000E+00 0.00000E+00 2.00010E-03 0.00000E+00 2.30452E-19 4.46960E-19
 -3
    1PSTEP                       214          43           1          
  100CL  143 53600.82296          20                     0   43           1
 -4  FORC        4    1
 -5  F1          1    2    1    0
 -5  F2          1    2    2    0
 -5  F3          1    2    3    0
 -5  ALL         1    2    0    0    1ALL
 -1         1-1.36787E+01-1.36787E+01 2.26426E+01
 -1         2-1.36787E+01 1.36787E+01 2.26426E+01
 -1         3-1.36787E+01 1.36787E+01-2.26426E+01
 -1         4-1.36787E+01-1.36787E+01-2.26426E+01
 -1         5 1.36787E+01-1.36787E+01 2.26426E+01
 -1         6 1.36787E+01 1.36787E+01 2.26426E+01
 -1         7 1.36787E+01 1.36787E+01-2.26426E+01
 -1         8 1.36787E+01-1.36787E+01-2.26426E+01
 -1         9 5.47147E+01-5.69876E-15-9.05706E+01
 -1        10 5.47147E+01-5.47147E+01 1.15463E-14
 -1        11 5.47147E+01 5.36569E-15 9.05706E+01
 -1        12 5.47147E+01 5.47147E+01 2.55906E-14
 -1        13-1.06002E-14 5.47147E+01-9.05706E+01
 -1        14 7.34990E-15-5.47147E+01-9.05706E+01
 -1        15 5.52869E-15-5.47147E+01 9.05706E+01
 -1        16-2.19509E-15 5.47147E+01 9.05706E+01
 -1        17-5.47147E+01-5.10379E-16-9.05706E+01
 -1        18-5.47147E+01-5.47147E+01 3.55271E-15
 -1        19-5.47147E+01 2.88335E-16 9.05706E+01
 -1        20-5.47147E+01 5.47147E+01 5.55112E-15
 -3
    1PSTEP                       215          43           1          
  100CL  143 53600.82296          20                     0   43           1
 -4  ERROR       1    1
 -5  STR(%)      1    1    0    0
 -1         1 1.07008E-14
 -1         2 1.07008E-14
 -1         3 1.07008E-14
 -1         4 1.07008E-14
 -1         5 1.07008E-14
 -1         6 1.07008E-14
 -1         7 1.07008E-14
 -1         8 1.07008E-14
 -1         9 1.07008E-14
 -1        10 1.07008E-14
 -1        11 1.07008E-14
 -1        12 1.07008E-14
 -1        13 1.07008E-14
 -1        14 1.07008E-14
 -1        15 1.07008E-14
 -1        16 1.07008E-14
 -1        17 1.07008E-14
 -1        18 1.07008E-14
 -1        19 1.07008E-14
 -1        20 1.07008E-14
 -3
    1PSTEP                       216          44           1          
  100CL  144 55895.47506          20                     0   44           1
 -4  DISP        4    1
 -5  D1          1    2    1    0
 -5  D2          1    2    2    0
 -5  D3          1    2    3    0
 -5  ALL         1    2    0    0    1ALL
 -1         1 0.00000E+00 0.00000E+00 0.00000E+00
 -1         2 0.00000E+00 0.00000E+00 0.00000E+00
 -1         3 0.00000E+00 0.00000E+00 2.00000E-03
 -1         4 0.00000E+00 0.00000E+00 2.00000E-03
 -1         5 0.00000E+00 0.00000E+00 0.00000E+00
 -1         6 0.00000E+00 0.00000E+00 0.00000E+00
 -1         7 0.00000E+00 0.00000E+00 2.00000E-03
 -1         8 0.00000E+00 0.00000E+00 2.00000E-03
 -1         9 0.00000E+00 0.00000E+00 0.00000E+00
 -1        10 0.00000E+00 0.00000E+00 1.00000E-03
 -1        11 0.00000E+00 0.00000E+00 2.00000E-03
 -1        12 0.00000E+00 0.00000E+00 1.00000E-03
 -1        13 0.00000E+00 0.00000E+00 0.00000E+00
 -1        14 0.00000E+00 0.00000E+00 0.00000E+00
 -1        15 0.00000E+00 0.00000E+00 2.00000E-03
 -1        16 0.00000E+00 0.00000E+00 2.00000E-03
 -1        17 0.00000E+00 0.00000E+00 0.00000E+00
 -1        18 0.00000E+00 0.00000E+00 1.00000E-03
 -1        19 0.00000E+00 0.00000E+00 2.00000E-03
 -1        20 0.00000E+00 0.00000E+00 1.00000E-03
 -3
    1PSTEP                       217          44           1          
  100CL  144 55895.47506          20                     0   44           1
 -4  STRESS      6    1
 -5  SXX         1    4    1    1
 -5  SYY         1    4    2    2
 -5  SZZ         1    4    3    3
 -5  SXY         1    4    1    2
 -5  SYZ         1    4    2    3
 -5  SZX         1    4    3    1
 -1         1 1.64465E+02 1.64465E+02 2.71046E+02 0.00000E+00 2.19855E-14 3.83206E-14
 -1         2 1.64465E+02 1.64465E+02 2.71046E+02 0.00000E+00-3.45781E-14-4.30969E-14
 -1         3 1.64465E+02 1.64465E+02 2.71046E+02 0.00000E+00-5.37792E-15-6.38709E-14
 -1         4 1.64465E+02 1.64465E+02 2.71046E+02 0.00000E+00-1.23032E-14 9.38656E-14
 -1         5 1.64465E+02 1.64465E+02 2.71046E+02 0.00000E+00 1.57830E-14-1.34949E-14
 -1         6 1.64465E+02 1.64465E+02 2.71046E+02 0.00000E+00-1.13969E-14 4.61942E-16
 -1         7 1.64465E+02 1.64465E+02 2.71046E+02 0.00000E+00 1.02976E-13 7.53065E-14
 -1         8 1.64465E+02 1.64465E+02 2.71046E+02 0.00000E+00-1.56409E-16-2.00649E-14
 -1         9 1.64480E+02 1.64480E+02 2.71070E+02 0.00000E+00-2.23185E-14-1.09032E-14
 -1        10 1.64480E+02 1.64480E+02 2.71070E+02 0.00000E+00 2.34701E-14 2.05307E-14
 -1        11 1.64480E+02 1.64480E+02 2.71070E+02 0.00000E+00 1.35680E-14 1.19249E-14
 -1        12 1.64480E+02 1.64480E+02 2.71070E+02 0.00000E+00 1.29007E-14 9.15478E-15
 -1        13 1.64480E+02 1.64480E+02 2.71070E+02 0.00000E+00-9.17182E-15-1.35037E-15
 -1        14 1.64480E+02 1.64480E+02 2.71070E+02 0.00000E+00 2.18583E-14 4.76500E-15
 -1        15 1.64480E+02 1.64480E+02 2.71070E+02 0.00000E+00-6.20090E-14 1.32841E-14
 -1        16 1.64480E+02 1.64480E+02 2.71070E+02 0.00000E+00 2.37232E-14 2.22757E-14
 -1        17 1.64480E+02 1.64480E+02 2.71070E+02 0.00000E+00-2.59382E-15 1.21244E-14
 -1        18 1.64480E+02 1.64480E+02 2.71070E+02 0.00000E+00 3.24811E-14-4.18428E-14
 -1        19 1.64480E+02 1.64480E+02 2.71070E+02 0.00000E+00 2.78763E-14-5.97468E-15
 -1        20 1.64480E+02 1.64480E+02 2.71070E+02 0.00000E+00 1.22813E-14 2.38195E-14
 -3
    1PSTEP                       218          44           1          
  100CL  144 55895.47506          20                     0   44           1
 -4  TOSTRAIN    6    1
 -5  EXX         1    4    1    1
 -5  EYY         1    4    2    2
 -5  EZZ         1    4    3    3
 -5  EXY         1    4    1    2
 -5  EYZ         1    4    2    3
 -5  EZX         1    4    3    1
 -1         1 0.00000E+00 0.00000E+00 1.99992E-03 0.00000E+00 4.12546E-19 7.19066E-19
 -1         2 0.00000E+00 0.00000E+00 1.99992E-03 0.00000E+00-6.48839E-19-8.08690E-19
 -1         3 0.00000E+00 0.00000E+00 1.99992E-03 0.00000E+00-1.00914E-19-1.19850E-18
 -1         4 0.00000E+00 0.00000E+00 1.99992E-03 0.00000E+00-2.30863E-19 1.76134E-18
 -1         5 0.00000E+00 0.00000E+00 1.99992E-03 0.00000E+00 2.96159E-19-2.53224E-19
 -1         6 0.00000E+00 0.00000E+00 1.99992E-03 0.00000E+00-2.13856E-19 8.66809E-21
 -1         7 0.00000E+00 0.00000E+00 1.99992E-03 0.00000E+00 1.93228E-18 1.41309E-18
 -1         8 0.00000E+00 0.00000E+00 1.99992E-03 0.00000E+00-2.93494E-21-3.76507E-19
 -1         9 0.00000E+00 0.00000E+00 2.00010E-03 0.00000E+00-4.18795E-19-2.04593E-19
 -1        10 0.00000E+00 0.00000E+00 2.00010E-03 0.00000E+00 4.40404E-19 3.85247E-19
 -1        11 0.00000E+00 0.00000E+00 2.00010E-03 0.00000E+00 2.54597E-19 2.23763E-19
 -1        12 0.00000E+00 0.00000E+00 2.00010E-03 0.00000E+00 2.42075E-19 1.71784E-19
 -1        13 0.00000E+00 0.00000E+00 2.00010E-03 0.00000E+00-1.72104E-19-2.53389E-20
 -1        14 0.00000E+00 0.00000E+00 2.00010E-03 0.00000E+00 4.10158E-19 8.94127E-20
 -1        15 0.00000E+00 0.00000E+00 2.00010E-03 0.00000E+00-1.16356E-18 2.49269E-19
 -1        16 0.00000E+00 0.00000E+00 2.00010E-03 0.00000E+00 4.45153E-19 4.17991E-19
 -1        17 0.00000E+00 0.00000E+00 2.00010E-03 0.00000E+00-4.86716E-20 2.27507E-19
 -1        18 0.00000E+00 0.00000E+00 2.00010E-03 0.00000E+00 6.09490E-19-7.85158E-19
 -1        19 0.00000E+00 0.00000E+00 2.00010E-03 0.00000E+00 5.23083E-19-1.12112E-19
 -1        20 0.00000E+00 0.00000E+00 2.00010E-03 0.00000E+00 2.30452E-19 4.46960E-19
 -3
    1PSTEP                       219          44           1          
  100CL  144 55895.47506          20                     0   44           1
 -4  FORC        4    1
 -5  F1          1    2    1    0
 -5  F2          1    2    2    0
 -5  F3          1    2    3    0
 -5  ALL         1    2    0    0    1ALL
 -1         1-1.37060E+01-1.37060E+01 2.25880E+01
 -1         2-1.37060E+01 1.37060E+01 2.25880E+01
 -1         3-1.37060E+01 1.37060E+01-2.25880E+01
 -1         4-1.37060E+01-1.37060E+01-2.25880E+01
 -1         5 1.37060E+01-1.37060E+01 2.25880E+01
 -1         6 1.37060E+01 1.37060E+01 2.25880E+01
 -1         7 1.37060E+01 1.37060E+01-2.25880E+01
 -1         8 1.37060E+01-1.37060E+01-2.25880E+01
 -1         9 5.48239E+01-8.69603E-15-9.03521E+01
 -1        10 5.48239E+01-5.48239E+01 2.88658E-15
 -1        11 5.48239E+01 6.25354E-15 9.03521E+01
 -1        12 5.48239E+01 5.48239E+01 2.25653E-14
 -1        13-9.90611E-15 5.48239E+01-9.03521E+01
 -1        14 9.12808E-15-5.48239E+01-9.03521E+01
 -1        15 9.07958E-15-5.48239E+01 9.03521E+01
 -1        16 4.24397E-15 5.48239E+01 9.03521E+01
 -1        17-5.48239E+01-2.28410E-15-9.03521E+01
 -1        18-5.48239E+01-5.48239E+01-3.55271E-15
 -1        19-5.48239E+01 2.85700E-16 9.03521E+01
 -1        20-5.48239E+01 5.48239E+01-2.88658E-15
 -3
    1PSTEP                       220          44           1          
  100CL  144 55895.47506          20                     0   44           1
 -4  ERROR       1    1
 -5  STR(%)      1    1    0    0
 -1         1 2.14534E-14
 -1         2 2.14534E-14
 -1         3 2.14534E-14
 -1         4 2.14534E-14
 -1         5 2.14534E-14
 -1         6 2.14534E-14
 -1         7 2.14534E-14
 -1         8 2.14534E-14
 -1         9 2.14534E-14
 -1        10 2.14534E-14
 -1        11 2.14534E-14
 -1        12 2.14534E-14
 -1        13 2.14534E-14
 -1        14 2.14534E-14
 -1        15 2.14534E-14
 -1        16 2.14534E-14
 -1        17 2.14534E-14
 -1        18 2.14534E-14
 -1        19 2.14534E-14
 -1        20 2.14534E-14
 -3
    1PSTEP                       221          45           1          
  100CL  145 57349.46524          20                     0   45           1
 -4  DISP        4    1
 -5  D1          1    2    1    0
 -5  D2          1    2    2    0
 -5  D3          1    2    3    0
 -5  ALL         1    2    0    0    1ALL
 -1         1 0.00000E+00 0.00000E+00 0.00000E+00
 -1         2 0.00000E+00 0.00000E+00 0.00000E+00
 -1         3 0.00000E+00 0.00000E+00 2.00000E-03
 -1         4 0.00000E+00 0.00000E+00 2.00000E-03
 -1         5 0.00000E+00 0.00000E+00 0.00000E+00
 -1         6 0.00000E+00 0.00000E+00 0.00000E+00
 -1         7 0.00000E+00 0.00000E+00 2.00000E-03
 -1         8 0.00000E+00 0.00000E+00 2.00000E-03
 -1         9 0.00000E+00 0.00000E+00 0.00000E+00
 -1        10 0.00000E+00 0.00000E+00 1.00000E-03
 -1        11 0.00000E+00 0.00000E+00 2.00000E-03
 -1        12 0.00000E+00 0.00000E+00 1.00000E-03
 -1        13 0.00000E+00 0.00000E+00 0.00000E+00
 -1        14 0.00000E+00 0.00000E+00 0.00000E+00
 -1        15 0.00000E+00 0.00000E+00 2.00000E-03
 -1        16 0.00000E+00 0.00000E+00 2.00000E-03
 -1        17 0.00000E+00 0.00000E+00 0.00000E+00
 -1        18 0.00000E+00 0.00000E+00 1.00000E-03
 -1        19 0.00000E+00 0.00000E+00 2.00000E-03
 -1        20 0.00000E+00 0.00000E+00 1.00000E-03
 -3
    1PSTEP                       222          45           1          
  100CL  145 57349.46524          20                     0   45           1
 -4  STRESS      6    1
 -5  SXX         1    4    1    1
 -5  SYY         1    4    2    2
 -5  SZZ         1    4    3    3
 -5  SXY         1    4    1    2
 -5  SYZ         1    4    2    3
 -5  SZX         1    4    3    1
 -1         1 1.64672E+02 1.64672E+02 2.70633E+02 0.00000E+00 2.18578E-14 3.80980E-14
 -1         2 1.64672E+02 1.64672E+02 2.70633E+02 0.00000E+00-3.43772E-14-4.28465E-14
 -1         3 1.64672E+02 1.64672E+02 2.70633E+02 0.00000E+00-5.34667E-15-6.34998E-14
 -1         4 1.64672E+02 1.64672E+02 2.70633E+02 0.00000E+00-1.22317E-14 9.33202E-14
 -1         5 1.64672E+02 1.64672E+02 2.70633E+02 0.00000E+00 1.56913E-14-1.34165E-14
 -1         6 1.64672E+02 1.64672E+02 2.70633E+02 0.00000E+00-1.13307E-14 4.59258E-16
 -1         7 1.64672E+02 1.64672E+02 2.70633E+02 0.00000E+00 1.02377E-13 7.48690E-14
 -1         8 1.64672E+02 1.64672E+02 2.70633E+02 0.00000E+00-1.55501E-16-1.99483E-14
 -1         9 1.64686E+02 1.64686E+02 2.70657E+02 0.00000E+00-2.21889E-14-1.08399E-14
 -1        10 1.64686E+02 1.64686E+02 2.70657E+02 0.00000E+00 2.33338E-14 2.04114E-14
 -1        11 1.64686E+02 1.64686E+02 2.70657E+02 0.00000E+00 1.34892E-14 1.18556E-14
 -1        12 1.64686E+02 1.64686E+02 2.70657E+02 0.00000E+00 1.28257E-14 9.10159E-15
 -1        13 1.64686E+02 1.64686E+02 2.70657E+02 0.00000E+00-9.11853E-15-1.34252E-15
 -1        14 1.64686E+02 1.64686E+02 2.70657E+02 0.00000E+00 2.17313E-14 4.73732E-15
 -1        15 1.64686E+02 1.64686E+02 2.70657E+02 0.00000E+00-6.16487E-14 1.32069E-14
 -1        16 1.64686E+02 1.64686E+02 2.70657E+02 0.00000E+00 2.35854E-14 2.21462E-14
 -1        17 1.64686E+02 1.64686E+02 2.70657E+02 0.00000E+00-2.57875E-15 1.20539E-14
 -1        18 1.64686E+02 1.64686E+02 2.70657E+02 0.00000E+00 3.22924E-14-4.15997E-14
 -1        19 1.64686E+02 1.64686E+02 2.70657E+02 0.00000E+00 2.77143E-14-5.93997E-15
 -1        20 1.64686E+02 1.64686E+02 2.70657E+02 0.00000E+00 1.22099E-14 2.36811E-14
 -3
    1PSTEP                       223          45           1          
  100CL  145 57349.46524          20                     0   45           1
 -4  TOSTRAIN    6    1
 -5  EXX         1    4    1    1
 -5  EYY         1    4    2    2
 -5  EZZ         1    4    3    3
 -5  EXY         1    4    1    2
 -5  EYZ         1    4    2    3
 -5  EZX         1    4    3    1
 -1         1 0.00000E+00 0.00000E+00 1.99992E-03 0.00000E+00 4.12546E-19 7.19066E-19
 -1         2 0.00000E+00 0.00000E+00 1.99992E-03 0.00000E+00-6.48839E-19-8.08690E-19
 -1         3 0.00000E+00 0.00000E+00 1.99992E-03 0.00000E+00-1.00914E-19-1.19850E-18
 -1         4 0.00000E+00 0.00000E+00 1.99992E-03 0.00000E+00-2.30863E-19 1.76134E-18
 -1         5 0.00000E+00 0.00000E+00 1.99992E-03 0.00000E+00 2.96159E-19-2.53224E-19
 -1         6 0.00000E+00 0.00000E+00 1.99992E-03 0.00000E+00-2.13856E-19 8.66809E-21
 -1         7 0.00000E+00 0.00000E+00 1.99992E-03 0.00000E+00 1.93228E-18 1.41309E-18
 -1         8 0.00000E+00 0.00000E+00 1.99992E-03 0.00000E+00-2.93494E-21-3.76507E-19
 -1         9 0.00000E+00 0.00000E+00 2.00010E-03 0.00000E+00-4.18795E-19-2.04593E-19
 -1        10 0.00000E+00 0.00000E+00 2.00010E-03 0.00000E+00 4.40404E-19 3.85247E-19
 -1        11 0.00000E+00 0.00000E+00 2.00010E-03 0.00000E+00 2.54597E-19 2.23763E-19
 -1        12 0.00000E+00 0.00000E+00 2.00010E-03 0.00000E+00 2.42075E-19 1.71784E-19
 -1        13 0.00000E+00 0.00000E+00 2.00010E-03 0.00000E+00-1.72104E-19-2.53389E-20
 -1        14 0.00000E+00 0.00000E+00 2.00010E-03 0.00000E+00 4.10158E-19 8.94127E-20
 -1        15 0.00000E+00 0.00000E+00 2.00010E-03 0.00000E+00-1.16356E-18 2.49269E-19
 -1        16 0.00000E+00 0.00000E+00 2.00010E-03 0.00000E+00 4.45153E-19 4.17991E-19
 -1        17 0.00000E+00 0.00000E+00 2.00010E-03 0.00000E+00-4.86716E-20 2.27507E-19
 -1        18 0.00000E+00 0.00000E+00 2.00010E-03 0.00000E+00 6.09490E-19-7.85158E-19
 -1        19 0.00000E+00 0.00000E+00 2.00010E-03 0.00000E+00 5.23083E-19-1.12112E-19
 -1        20 0.00000E+00 0.00000E+00 2.00010E-03 0.00000E+00 2.30452E-19 4.46960E-19
 -3
    1PSTEP                       224          45           1          
  100CL  145 57349.46524          20                     0   45           1
 -4  FORC        4    1
 -5  F1          1    2    1    0
 -5  F2          1    2    2    0
 -5  F3          1    2    3    0
 -5  ALL         1    2    0    0    1ALL
 -1         1-1.37232E+01-1.37232E+01 2.25536E+01
 -1         2-1.37232E+01 1.37232E+01 2.25536E+01
 -1         3-1.37232E+01 1.37232E+01-2.25536E+01
 -1         4-1.37232E+01-1.37232E+01-2.25536E+01
 -1         5 1.37232E+01-1.37232E+01 2.25536E+01
 -1         6 1.37232E+01 1.37232E+01 2.25536E+01
 -1         7 1.37232E+01 1.37232E+01-2.25536E+01
 -1         8 1.37232E+01-1.37232E+01-2.25536E+01
 -1         9 5.48928E+01-8.02968E-15-9.02145E+01
 -1        10 5.48928E+01-5.48928E+01 4.88498E-15
 -1        11 5.48928E+01 6.91946E-15 9.02145E+01
 -1        12 5.48928E+01 5.48928E+01 1.65146E-14
 -1        13-7.71327E-15 5.48928E+01-9.02145E+01
 -1        14-3.52731E-15-5.48928E+01-9.02145E+01
 -1        15 1.97300E-15-5.48928E+01 9.02145E+01
 -1        16-6.19227E-15 5.48928E+01 9.02145E+01
 -1        17-5.48928E+01-2.28244E-15-9.02145E+01
 -1        18-5.48928E+01-5.48928E+01-1.77636E-15
 -1        19-5.48928E+01 2.84040E-16 9.02145E+01
 -1        20-5.48928E+01 5.48928E+01 2.88658E-15
 -3
    1PSTEP                       225          45           1          
  100CL  145 57349.46524          20                     0   45           1
 -4  ERROR       1    1
 -5  STR(%)      1    1    0    0
 -1         1 1.39660E-14
 -1         2 1.39660E-14
 -1         3 1.39660E-14
 -1         4 1.39660E-14
 -1         5 1.39660E-14
 -1         6 1.39660E-14
 -1         7 1.39660E-14
 -1         8 1.39660E-14
 -1         9 1.39660E-14
 -1        10 1.39660E-14
 -1        11 1.39660E-14
 -1        12 1.39660E-14
 -1        13 1.39660E-14
 -1        14 1.39660E-14
 -1        15 1.39660E-14
 -1        16 1.39660E-14
 -1        17 1.39660E-14
 -1        18 1.39660E-14
 -1        19 1.39660E-14
 -1        20 1.39660E-14
 -3
    1PSTEP                       226          46           1          
  100CL  146 58803.45542          20                     0   46           1
 -4  DISP        4    1
 -5  D1          1    2    1    0
 -5  D2          1    2    2    0
 -5  D3          1    2    3    0
 -5  ALL         1    2    0    0    1ALL
 -1         1 0.00000E+00 0.00000E+00 0.00000E+00
 -1         2 0.00000E+00 0.00000E+00 0.00000E+00
 -1         3 0.00000E+00 0.00000E+00 2.00000E-03
 -1         4 0.00000E+00 0.00000E+00 2.00000E-03
 -1         5 0.00000E+00 0.00000E+00 0.00000E+00
 -1         6 0.00000E+00 0.00000E+00 0.00000E+00
 -1         7 0.00000E+00 0.00000E+00 2.00000E-03
 -1         8 0.00000E+00 0.00000E+00 2.00000E-03
 -1         9 0.00000E+00 0.00000E+00 0.00000E+00
 -1        10 0.00000E+00 0.00000E+00 1.00000E-03
 -1        11 0.00000E+00 0.00000E+00 2.00000E-03
 -1        12 0.00000E+00 0.00000E+00 1.00000E-03
 -1        13 0.00000E+00 0.00000E+00 0.00000E+00
 -1        14 0.00000E+00 0.00000E+00 0.00000E+00
 -1        15 0.00000E+00 0.00000E+00 2.00000E-03
 -1        16 0.00000E+00 0.00000E+00 2.00000E-03
 -1        17 0.00000E+00 0.00000E+00 0.00000E+00
 -1        18 0.00000E+00 0.00000E+00 1.00000E-03
 -1        19 0.00000E+00 0.00000E+00 2.00000E-03
 -1        20 0.00000E+00 0.00000E+00 1.00000E-03
 -3
    1PSTEP                       227          46           1          
  100CL  146 58803.45542          20                     0   46           1
 -4  STRESS      6    1
 -5  SXX         1    4    1    1
 -5  SYY         1    4    2    2
 -5  SZZ         1    4    3    3
 -5  SXY         1    4    1    2
 -5  SYZ         1    4    2    3
 -5  SZX         1    4    3    1
 -1         1 1.64877E+02 1.64877E+02 2.70222E+02 0.00000E+00 2.17308E-14 3.78766E-14
 -1         2 1.64877E+02 1.64877E+02 2.70222E+02 0.00000E+00-3.41774E-14-4.25975E-14
 -1         3 1.64877E+02 1.64877E+02 2.70222E+02 0.00000E+00-5.31560E-15-6.31308E-14
 -1         4 1.64877E+02 1.64877E+02 2.70222E+02 0.00000E+00-1.21606E-14 9.27780E-14
 -1         5 1.64877E+02 1.64877E+02 2.70222E+02 0.00000E+00 1.56001E-14-1.33385E-14
 -1         6 1.64877E+02 1.64877E+02 2.70222E+02 0.00000E+00-1.12648E-14 4.56590E-16
 -1         7 1.64877E+02 1.64877E+02 2.70222E+02 0.00000E+00 1.01783E-13 7.44340E-14
 -1         8 1.64877E+02 1.64877E+02 2.70222E+02 0.00000E+00-1.54597E-16-1.98324E-14
 -1         9 1.64892E+02 1.64892E+02 2.70247E+02 0.00000E+00-2.20599E-14-1.07769E-14
 -1        10 1.64892E+02 1.64892E+02 2.70247E+02 0.00000E+00 2.31982E-14 2.02928E-14
 -1        11 1.64892E+02 1.64892E+02 2.70247E+02 0.00000E+00 1.34108E-14 1.17867E-14
 -1        12 1.64892E+02 1.64892E+02 2.70247E+02 0.00000E+00 1.27512E-14 9.04871E-15
 -1        13 1.64892E+02 1.64892E+02 2.70247E+02 0.00000E+00-9.06555E-15-1.33472E-15
 -1        14 1.64892E+02 1.64892E+02 2.70247E+02 0.00000E+00 2.16050E-14 4.70979E-15
 -1        15 1.64892E+02 1.64892E+02 2.70247E+02 0.00000E+00-6.12905E-14 1.31302E-14
 -1        16 1.64892E+02 1.64892E+02 2.70247E+02 0.00000E+00 2.34483E-14 2.20176E-14
 -1        17 1.64892E+02 1.64892E+02 2.70247E+02 0.00000E+00-2.56377E-15 1.19839E-14
 -1        18 1.64892E+02 1.64892E+02 2.70247E+02 0.00000E+00 3.21048E-14-4.13580E-14
 -1        19 1.64892E+02 1.64892E+02 2.70247E+02 0.00000E+00 2.75533E-14-5.90546E-15
 -1        20 1.64892E+02 1.64892E+02 2.70247E+02 0.00000E+00 1.21390E-14 2.35435E-14
 -3
    1PSTEP                       228          46           1          
  100CL  146 58803.45542          20                     0   46           1
 -4  TOSTRAIN    6    1
 -5  EXX         1    4    1    1
 -5  EYY         1    4    2    2
 -5  EZZ         1    4    3    3
 -5  EXY         1    4    1    2
 -5  EYZ         1    4    2    3
 -5  EZX         1    4    3    1
 -1         1 0.00000E+00 0.00000E+00 1.99992E-03 0.00000E+00 4.12546E-19 7.19066E-19
 -1         2 0.00000E+00 0.00000E+00 1.99992E-03 0.00000E+00-6.48839E-19-8.08690E-19
 -1         3 0.00000E+00 0.00000E+00 1.99992E-03 0.00000E+00-1.00914E-19-1.19850E-18
 -1         4 0.00000E+00 0.00000E+00 1.99992E-03 0.00000E+00-2.30863E-19 1.76134E-18
 -1         5 0.00000E+00 0.00000E+00 1.99992E-03 0.00000E+00 2.96159E-19-2.53224E-19
 -1         6 0.00000E+00 0.00000E+00 1.99992E-03 0.00000E+00-2.13856E-19 8.66809E-21
 -1         7 0.00000E+00 0.00000E+00 1.99992E-03 0.00000E+00 1.93228E-18 1.41309E-18
 -1         8 0.00000E+00 0.00000E+00 1.99992E-03 0.00000E+00-2.93494E-21-3.76507E-19
 -1         9 0.00000E+00 0.00000E+00 2.00010E-03 0.00000E+00-4.18795E-19-2.04593E-19
 -1        10 0.00000E+00 0.00000E+00 2.00010E-03 0.00000E+00 4.40404E-19 3.85247E-19
 -1        11 0.00000E+00 0.00000E+00 2.00010E-03 0.00000E+00 2.54597E-19 2.23763E-19
 -1        12 0.00000E+00 0.00000E+00 2.00010E-03 0.00000E+00 2.42075E-19 1.71784E-19
 -1        13 0.00000E+00 0.00000E+00 2.00010E-03 0.00000E+00-1.72104E-19-2.53389E-20
 -1        14 0.00000E+00 0.00000E+00 2.00010E-03 0.00000E+00 4.10158E-19 8.94127E-20
 -1        15 0.00000E+00 0.00000E+00 2.00010E-03 0.00000E+00-1.16356E-18 2.49269E-19
 -1        16 0.00000E+00 0.00000E+00 2.00010E-03 0.00000E+00 4.45153E-19 4.17991E-19
 -1        17 0.00000E+00 0.00000E+00 2.00010E-03 0.00000E+00-4.86716E-20 2.27507E-19
 -1        18 0.00000E+00 0.00000E+00 2.00010E-03 0.00000E+00 6.09490E-19-7.85158E-19
 -1        19 0.00000E+00 0.00000E+00 2.00010E-03 0.00000E+00 5.23083E-19-1.12112E-19
 -1        20 0.00000E+00 0.00000E+00 2.00010E-03 0.00000E+00 2.30452E-19 4.46960E-19
 -3
    1PSTEP                       229          46           1          
  100CL  146 58803.45542          20                     0   46           1
 -4  FORC        4    1
 -5  F1          1    2    1    0
 -5  F2          1    2    2    0
 -5  F3          1    2    3    0
 -5  ALL         1    2    0    0    1ALL
 -1         1-1.37403E+01-1.37403E+01 2.25194E+01
 -1         2-1.37403E+01 1.37403E+01 2.25194E+01
 -1         3-1.37403E+01 1.37403E+01-2.25194E+01
 -1         4-1.37403E+01-1.37403E+01-2.25194E+01
 -1         5 1.37403E+01-1.37403E+01 2.25194E+01
 -1         6 1.37403E+01 1.37403E+01 2.25194E+01
 -1         7 1.37403E+01 1.37403E+01-2.25194E+01
 -1         8 1.37403E+01-1.37403E+01-2.25194E+01
 -1         9 5.49612E+01-7.03027E-15-9.00777E+01
 -1        10 5.49612E+01-5.49612E+01 3.55271E-15
 -1        11 5.49612E+01 8.02947E-15 9.00777E+01
 -1        12 5.49612E+01 5.49612E+01 2.79499E-14
 -1        13-3.21672E-15 5.49612E+01-9.00777E+01
 -1        14 1.00186E-14-5.49612E+01-9.00777E+01
 -1        15-6.90993E-15-5.49612E+01 9.00777E+01
 -1        16-2.86175E-15 5.49612E+01 9.00777E+01
 -1        17-5.49612E+01-5.04434E-16-9.00777E+01
 -1        18-5.49612E+01-5.49612E+01 5.32907E-15
 -1        19-5.49612E+01 2.05875E-15 9.00777E+01
 -1        20-5.49612E+01 5.49612E+01 5.99520E-15
 -3
    1PSTEP                       230          46           1          
  100CL  146 58803.45542          20                     0   46           1
 -4  ERROR       1    1
 -5  STR(%)      1    1    0    0
 -1         1 6.45563E-15
 -1         2 6.45563E-15
 -1         3 6.45563E-15
 -1         4 6.45563E-15
 -1         5 6.45563E-15
 -1         6 6.45563E-15
 -1         7 6.45563E-15
 -1         8 6.45563E-15
 -1         9 6.45563E-15
 -1        10 6.45563E-15
 -1        11 6.45563E-15
 -1        12 6.45563E-15
 -1        13 6.45563E-15
 -1        14 6.45563E-15
 -1        15 6.45563E-15
 -1        16 6.45563E-15
 -1        17 6.45563E-15
 -1        18 6.45563E-15
 -1        19 6.45563E-15
 -1        20 6.45563E-15
 -3
    1PSTEP                       231          47           1          
  100CL  147 60984.44068          20                     0   47           1
 -4  DISP        4    1
 -5  D1          1    2    1    0
 -5  D2          1    2    2    0
 -5  D3          1    2    3    0
 -5  ALL         1    2    0    0    1ALL
 -1         1 0.00000E+00 0.00000E+00 0.00000E+00
 -1         2 0.00000E+00 0.00000E+00 0.00000E+00
 -1         3 0.00000E+00 0.00000E+00 2.00000E-03
 -1         4 0.00000E+00 0.00000E+00 2.00000E-03
 -1         5 0.00000E+00 0.00000E+00 0.00000E+00
 -1         6 0.00000E+00 0.00000E+00 0.00000E+00
 -1         7 0.00000E+00 0.00000E+00 2.00000E-03
 -1         8 0.00000E+00 0.00000E+00 2.00000E-03
 -1         9 0.00000E+00 0.00000E+00 0.00000E+00
 -1        10 0.00000E+00 0.00000E+00 1.00000E-03
 -1        11 0.00000E+00 0.00000E+00 2.00000E-03
 -1        12 0.00000E+00 0.00000E+00 1.00000E-03
 -1        13 0.00000E+00 0.00000E+00 0.00000E+00
 -1        14 0.00000E+00 0.00000E+00 0.00000E+00
 -1        15 0.00000E+00 0.00000E+00 2.00000E-03
 -1        16 0.00000E+00 0.00000E+00 2.00000E-03
 -1        17 0.00000E+00 0.00000E+00 0.00000E+00
 -1        18 0.00000E+00 0.00000E+00 1.00000E-03
 -1        19 0.00000E+00 0.00000E+00 2.00000E-03
 -1        20 0.00000E+00 0.00000E+00 1.00000E-03
 -3
    1PSTEP                       232          47           1          
  100CL  147 60984.44068          20                     0   47           1
 -4  STRESS      6    1
 -5  SXX         1    4    1    1
 -5  SYY         1    4    2    2
 -5  SZZ         1    4    3    3
 -5  SXY         1    4    1    2
 -5  SYZ         1    4    2    3
 -5  SZX         1    4    3    1
 -1         1 1.65182E+02 1.65182E+02 2.69612E+02 0.00000E+00 2.15419E-14 3.75475E-14
 -1         2 1.65182E+02 1.65182E+02 2.69612E+02 0.00000E+00-3.38804E-14-4.22274E-14
 -1         3 1.65182E+02 1.65182E+02 2.69612E+02 0.00000E+00-5.26941E-15-6.25822E-14
 -1         4 1.65182E+02 1.65182E+02 2.69612E+02 0.00000E+00-1.20550E-14 9.19718E-14
 -1         5 1.65182E+02 1.65182E+02 2.69612E+02 0.00000E+00 1.54645E-14-1.32226E-14
 -1         6 1.65182E+02 1.65182E+02 2.69612E+02 0.00000E+00-1.11669E-14 4.52622E-16
 -1         7 1.65182E+02 1.65182E+02 2.69612E+02 0.00000E+00 1.00898E-13 7.37871E-14
 -1         8 1.65182E+02 1.65182E+02 2.69612E+02 0.00000E+00-1.53254E-16-1.96601E-14
 -1         9 1.65197E+02 1.65197E+02 2.69636E+02 0.00000E+00-2.18682E-14-1.06832E-14
 -1        10 1.65197E+02 1.65197E+02 2.69636E+02 0.00000E+00 2.29966E-14 2.01164E-14
 -1        11 1.65197E+02 1.65197E+02 2.69636E+02 0.00000E+00 1.32943E-14 1.16843E-14
 -1        12 1.65197E+02 1.65197E+02 2.69636E+02 0.00000E+00 1.26404E-14 8.97007E-15
 -1        13 1.65197E+02 1.65197E+02 2.69636E+02 0.00000E+00-8.98677E-15-1.32312E-15
 -1        14 1.65197E+02 1.65197E+02 2.69636E+02 0.00000E+00 2.14173E-14 4.66887E-15
 -1        15 1.65197E+02 1.65197E+02 2.69636E+02 0.00000E+00-6.07579E-14 1.30161E-14
 -1        16 1.65197E+02 1.65197E+02 2.69636E+02 0.00000E+00 2.32446E-14 2.18262E-14
 -1        17 1.65197E+02 1.65197E+02 2.69636E+02 0.00000E+00-2.54149E-15 1.18797E-14
 -1        18 1.65197E+02 1.65197E+02 2.69636E+02 0.00000E+00 3.18258E-14-4.09986E-14
 -1        19 1.65197E+02 1.65197E+02 2.69636E+02 0.00000E+00 2.73138E-14-5.85414E-15
 -1        20 1.65197E+02 1.65197E+02 2.69636E+02 0.00000E+00 1.20335E-14 2.33389E-14
 -3
    1PSTEP                       233          47           1          
  100CL  147 60984.44068          20                     0   47           1
 -4  TOSTRAIN    6    1
 -5  EXX         1    4    1    1
 -5  EYY         1    4    2    2
 -5  EZZ         1    4    3    3
 -5  EXY         1    4    1    2
 -5  EYZ         1    4    2    3
 -5  EZX         1    4    3    1
 -1         1 0.00000E+00 0.00000E+00 1.99992E-03 0.00000E+00 4.12546E-19 7.19066E-19
 -1         2 0.00000E+00 0.00000E+00 1.99992E-03 0.00000E+00-6.48839E-19-8.08690E-19
 -1         3 0.00000E+00 0.00000E+00 1.99992E-03 0.00000E+00-1.00914E-19-1.19850E-18
 -1         4 0.00000E+00 0.00000E+00 1.99992E-03 0.00000E+00-2.30863E-19 1.76134E-18
 -1         5 0.00000E+00 0.00000E+00 1.99992E-03 0.00000E+00 2.96159E-19-2.53224E-19
 -1         6 0.00000E+00 0.00000E+00 1.99992E-03 0.00000E+00-2.13856E-19 8.66809E-21
 -1         7 0.00000E+00 0.00000E+00 1.99992E-03 0.00000E+00 1.93228E-18 1.41309E-18
 -1         8 0.00000E+00 0.00000E+00 1.99992E-03 0.00000E+00-2.93494E-21-3.76507E-19
 -1         9 0.00000E+00 0.00000E+00 2.00010E-03 0.00000E+00-4.18795E-19-2.04593E-19
 -1        10 0.00000E+00 0.00000E+00 2.00010E-03 0.00000E+00 4.40404E-19 3.85247E-19
 -1        11 0.00000E+00 0.00000E+00 2.00010E-03 0.00000E+00 2.54597E-19 2.23763E-19
 -1        12 0.00000E+00 0.00000E+00 2.00010E-03 0.00000E+00 2.42075E-19 1.71784E-19
 -1        13 0.00000E+00 0.00000E+00 2.00010E-03 0.00000E+00-1.72104E-19-2.53389E-20
 -1        14 0.00000E+00 0.00000E+00 2.00010E-03 0.00000E+00 4.10158E-19 8.94127E-20
 -1        15 0.00000E+00 0.00000E+00 2.00010E-03 0.00000E+00-1.16356E-18 2.49269E-19
 -1        16 0.00000E+00 0.00000E+00 2.00010E-03 0.00000E+00 4.45153E-19 4.17991E-19
 -1        17 0.00000E+00 0.00000E+00 2.00010E-03 0.00000E+00-4.86716E-20 2.27507E-19
 -1        18 0.00000E+00 0.00000E+00 2.00010E-03 0.00000E+00 6.09490E-19-7.85158E-19
 -1        19 0.00000E+00 0.00000E+00 2.00010E-03 0.00000E+00 5.23083E-19-1.12112E-19
 -1        20 0.00000E+00 0.00000E+00 2.00010E-03 0.00000E+00 2.30452E-19 4.46960E-19
 -3
    1PSTEP                       234          47           1          
  100CL  147 60984.44068          20                     0   47           1
 -4  FORC        4    1
 -5  F1          1    2    1    0
 -5  F2          1    2    2    0
 -5  F3          1    2    3    0
 -5  ALL         1    2    0    0    1ALL
 -1         1-1.37657E+01-1.37657E+01 2.24686E+01
 -1         2-1.37657E+01 1.37657E+01 2.24686E+01
 -1         3-1.37657E+01 1.37657E+01-2.24686E+01
 -1         4-1.37657E+01-1.37657E+01-2.24686E+01
 -1         5 1.37657E+01-1.37657E+01 2.24686E+01
 -1         6 1.37657E+01 1.37657E+01 2.24686E+01
 -1         7 1.37657E+01 1.37657E+01-2.24686E+01
 -1         8 1.37657E+01-1.37657E+01-2.24686E+01
 -1         9 5.50629E+01-8.69530E-15-8.98742E+01
 -1        10 5.50629E+01-5.50629E+01 3.55271E-15
 -1        11 5.50629E+01 7.80712E-15 8.98742E+01
 -1        12 5.50629E+01 5.50629E+01 2.73115E-14
 -1        13-8.62884E-15 5.50629E+01-8.98742E+01
 -1        14 1.02423E-14-5.50629E+01-8.98742E+01
 -1        15 1.93801E-16-5.50629E+01 8.98742E+01
 -1        16 1.13484E-15 5.50629E+01 8.98742E+01
 -1        17-5.50629E+01-2.27834E-15-8.98742E+01
 -1        18-5.50629E+01-5.50629E+01 0.00000E+00
 -1        19-5.50629E+01 2.79935E-16 8.98742E+01
 -1        20-5.50629E+01 5.50629E+01-2.22045E-16
 -3
    1PSTEP                       235          47           1          
  100CL  147 60984.44068          20                     0   47           1
 -4  ERROR       1    1
 -5  STR(%)      1    1    0    0
 -1         1 1.40189E-14
 -1         2 1.40189E-14
 -1         3 1.40189E-14
 -1         4 1.40189E-14
 -1         5 1.40189E-14
 -1         6 1.40189E-14
 -1         7 1.40189E-14
 -1         8 1.40189E-14
 -1         9 1.40189E-14
 -1        10 1.40189E-14
 -1        11 1.40189E-14
 -1        12 1.40189E-14
 -1        13 1.40189E-14
 -1        14 1.40189E-14
 -1        15 1.40189E-14
 -1        16 1.40189E-14
 -1        17 1.40189E-14
 -1        18 1.40189E-14
 -1        19 1.40189E-14
 -1        20 1.40189E-14
 -3
    1PSTEP                       236          48           1          
  100CL  148 62544.65363          20                     0   48           1
 -4  DISP        4    1
 -5  D1          1    2    1    0
 -5  D2          1    2    2    0
 -5  D3          1    2    3    0
 -5  ALL         1    2    0    0    1ALL
 -1         1 0.00000E+00 0.00000E+00 0.00000E+00
 -1         2 0.00000E+00 0.00000E+00 0.00000E+00
 -1         3 0.00000E+00 0.00000E+00 2.00000E-03
 -1         4 0.00000E+00 0.00000E+00 2.00000E-03
 -1         5 0.00000E+00 0.00000E+00 0.00000E+00
 -1         6 0.00000E+00 0.00000E+00 0.00000E+00
 -1         7 0.00000E+00 0.00000E+00 2.00000E-03
 -1         8 0.00000E+00 0.00000E+00 2.00000E-03
 -1         9 0.00000E+00 0.00000E+00 0.00000E+00
 -1        10 0.00000E+00 0.00000E+00 1.00000E-03
 -1        11 0.00000E+00 0.00000E+00 2.00000E-03
 -1        12 0.00000E+00 0.00000E+00 1.00000E-03
 -1        13 0.00000E+00 0.00000E+00 0.00000E+00
 -1        14 0.00000E+00 0.00000E+00 0.00000E+00
 -1        15 0.00000E+00 0.00000E+00 2.00000E-03
 -1        16 0.00000E+00 0.00000E+00 2.00000E-03
 -1        17 0.00000E+00 0.00000E+00 0.00000E+00
 -1        18 0.00000E+00 0.00000E+00 1.00000E-03
 -1        19 0.00000E+00 0.00000E+00 2.00000E-03
 -1        20 0.00000E+00 0.00000E+00 1.00000E-03
 -3
    1PSTEP                       237          48           1          
  100CL  148 62544.65363          20                     0   48           1
 -4  STRESS      6    1
 -5  SXX         1    4    1    1
 -5  SYY         1    4    2    2
 -5  SZZ         1    4    3    3
 -5  SXY         1    4    1    2
 -5  SYZ         1    4    2    3
 -5  SZX         1    4    3    1
 -1         1 1.65399E+02 1.65399E+02 2.69178E+02 0.00000E+00 2.14077E-14 3.73135E-14
 -1         2 1.65399E+02 1.65399E+02 2.69178E+02 0.00000E+00-3.36693E-14-4.19642E-14
 -1         3 1.65399E+02 1.65399E+02 2.69178E+02 0.00000E+00-5.23657E-15-6.21922E-14
 -1         4 1.65399E+02 1.65399E+02 2.69178E+02 0.00000E+00-1.19798E-14 9.13986E-14
 -1         5 1.65399E+02 1.65399E+02 2.69178E+02 0.00000E+00 1.53681E-14-1.31402E-14
 -1         6 1.65399E+02 1.65399E+02 2.69178E+02 0.00000E+00-1.10973E-14 4.49801E-16
 -1         7 1.65399E+02 1.65399E+02 2.69178E+02 0.00000E+00 1.00269E-13 7.33273E-14
 -1         8 1.65399E+02 1.65399E+02 2.69178E+02 0.00000E+00-1.52298E-16-1.95375E-14
 -1         9 1.65414E+02 1.65414E+02 2.69202E+02 0.00000E+00-2.17319E-14-1.06167E-14
 -1        10 1.65414E+02 1.65414E+02 2.69202E+02 0.00000E+00 2.28533E-14 1.99911E-14
 -1        11 1.65414E+02 1.65414E+02 2.69202E+02 0.00000E+00 1.32114E-14 1.16114E-14
 -1        12 1.65414E+02 1.65414E+02 2.69202E+02 0.00000E+00 1.25616E-14 8.91417E-15
 -1        13 1.65414E+02 1.65414E+02 2.69202E+02 0.00000E+00-8.93076E-15-1.31488E-15
 -1        14 1.65414E+02 1.65414E+02 2.69202E+02 0.00000E+00 2.12838E-14 4.63977E-15
 -1        15 1.65414E+02 1.65414E+02 2.69202E+02 0.00000E+00-6.03792E-14 1.29350E-14
 -1        16 1.65414E+02 1.65414E+02 2.69202E+02 0.00000E+00 2.30997E-14 2.16902E-14
 -1        17 1.65414E+02 1.65414E+02 2.69202E+02 0.00000E+00-2.52565E-15 1.18057E-14
 -1        18 1.65414E+02 1.65414E+02 2.69202E+02 0.00000E+00 3.16274E-14-4.07431E-14
 -1        19 1.65414E+02 1.65414E+02 2.69202E+02 0.00000E+00 2.71436E-14-5.81765E-15
 -1        20 1.65414E+02 1.65414E+02 2.69202E+02 0.00000E+00 1.19585E-14 2.31935E-14
 -3
    1PSTEP                       238          48           1          
  100CL  148 62544.65363          20                     0   48           1
 -4  TOSTRAIN    6    1
 -5  EXX         1    4    1    1
 -5  EYY         1    4    2    2
 -5  EZZ         1    4    3    3
 -5  EXY         1    4    1    2
 -5  EYZ         1    4    2    3
 -5  EZX         1    4    3    1
 -1         1 0.00000E+00 0.00000E+00 1.99992E-03 0.00000E+00 4.12546E-19 7.19066E-19
 -1         2 0.00000E+00 0.00000E+00 1.99992E-03 0.00000E+00-6.48839E-19-8.08690E-19
 -1         3 0.00000E+00 0.00000E+00 1.99992E-03 0.00000E+00-1.00914E-19-1.19850E-18
 -1         4 0.00000E+00 0.00000E+00 1.99992E-03 0.00000E+00-2.30863E-19 1.76134E-18
 -1         5 0.00000E+00 0.00000E+00 1.99992E-03 0.00000E+00 2.96159E-19-2.53224E-19
 -1         6 0.00000E+00 0.00000E+00 1.99992E-03 0.00000E+00-2.13856E-19 8.66809E-21
 -1         7 0.00000E+00 0.00000E+00 1.99992E-03 0.00000E+00 1.93228E-18 1.41309E-18
 -1         8 0.00000E+00 0.00000E+00 1.99992E-03 0.00000E+00-2.93494E-21-3.76507E-19
 -1         9 0.00000E+00 0.00000E+00 2.00010E-03 0.00000E+00-4.18795E-19-2.04593E-19
 -1        10 0.00000E+00 0.00000E+00 2.00010E-03 0.00000E+00 4.40404E-19 3.85247E-19
 -1        11 0.00000E+00 0.00000E+00 2.00010E-03 0.00000E+00 2.54597E-19 2.23763E-19
 -1        12 0.00000E+00 0.00000E+00 2.00010E-03 0.00000E+00 2.42075E-19 1.71784E-19
 -1        13 0.00000E+00 0.00000E+00 2.00010E-03 0.00000E+00-1.72104E-19-2.53389E-20
 -1        14 0.00000E+00 0.00000E+00 2.00010E-03 0.00000E+00 4.10158E-19 8.94127E-20
 -1        15 0.00000E+00 0.00000E+00 2.00010E-03 0.00000E+00-1.16356E-18 2.49269E-19
 -1        16 0.00000E+00 0.00000E+00 2.00010E-03 0.00000E+00 4.45153E-19 4.17991E-19
 -1        17 0.00000E+00 0.00000E+00 2.00010E-03 0.00000E+00-4.86716E-20 2.27507E-19
 -1        18 0.00000E+00 0.00000E+00 2.00010E-03 0.00000E+00 6.09490E-19-7.85158E-19
 -1        19 0.00000E+00 0.00000E+00 2.00010E-03 0.00000E+00 5.23083E-19-1.12112E-19
 -1        20 0.00000E+00 0.00000E+00 2.00010E-03 0.00000E+00 2.30452E-19 4.46960E-19
 -3
    1PSTEP                       239          48           1          
  100CL  148 62544.65363          20                     0   48           1
 -4  FORC        4    1
 -5  F1          1    2    1    0
 -5  F2          1    2    2    0
 -5  F3          1    2    3    0
 -5  ALL         1    2    0    0    1ALL
 -1         1-1.37838E+01-1.37838E+01 2.24324E+01
 -1         2-1.37838E+01 1.37838E+01 2.24324E+01
 -1         3-1.37838E+01 1.37838E+01-2.24324E+01
 -1         4-1.37838E+01-1.37838E+01-2.24324E+01
 -1         5 1.37838E+01-1.37838E+01 2.24324E+01
 -1         6 1.37838E+01 1.37838E+01 2.24324E+01
 -1         7 1.37838E+01 1.37838E+01-2.24324E+01
 -1         8 1.37838E+01-1.37838E+01-2.24324E+01
 -1         9 5.51352E+01-6.03054E-15-8.97296E+01
 -1        10 5.51352E+01-5.51352E+01 2.22045E-15
 -1        11 5.51352E+01 5.36441E-15 8.97296E+01
 -1        12 5.51352E+01 5.51352E+01 2.14551E-14
 -1        13-6.46376E-15 5.51352E+01-8.97296E+01
 -1        14 1.64608E-14-5.51352E+01-8.97296E+01
 -1        15-1.58376E-15-5.51352E+01 8.97296E+01
 -1        16-3.97234E-15 5.51352E+01 8.97296E+01
 -1        17-5.51352E+01 1.05408E-15-8.97296E+01
 -1        18-5.51352E+01-5.51352E+01 1.77636E-15
 -1        19-5.51352E+01 2.78191E-16 8.97296E+01
 -1        20-5.51352E+01 5.51352E+01 9.10383E-15
 -3
    1PSTEP                       240          48           1          
  100CL  148 62544.65363          20                     0   48           1
 -4  ERROR       1    1
 -5  STR(%)      1    1    0    0
 -1         1 9.72101E-15
 -1         2 9.72101E-15
 -1         3 9.72101E-15
 -1         4 9.72101E-15
 -1         5 9.72101E-15
 -1         6 9.72101E-15
 -1         7 9.72101E-15
 -1         8 9.72101E-15
 -1         9 9.72101E-15
 -1        10 9.72101E-15
 -1        11 9.72101E-15
 -1        12 9.72101E-15
 -1        13 9.72101E-15
 -1        14 9.72101E-15
 -1        15 9.72101E-15
 -1        16 9.72101E-15
 -1        17 9.72101E-15
 -1        18 9.72101E-15
 -1        19 9.72101E-15
 -1        20 9.72101E-15
 -3
    1PSTEP                       241          49           1          
  100CL  149 64104.86657          20                     0   49           1
 -4  DISP        4    1
 -5  D1          1    2    1    0
 -5  D2          1    2    2    0
 -5  D3          1    2    3    0
 -5  ALL         1    2    0    0    1ALL
 -1         1 0.00000E+00 0.00000E+00 0.00000E+00
 -1         2 0.00000E+00 0.00000E+00 0.00000E+00
 -1         3 0.00000E+00 0.00000E+00 2.00000E-03
 -1         4 0.00000E+00 0.00000E+00 2.00000E-03
 -1         5 0.00000E+00 0.00000E+00 0.00000E+00
 -1         6 0.00000E+00 0.00000E+00 0.00000E+00
 -1         7 0.00000E+00 0.00000E+00 2.00000E-03
 -1         8 0.00000E+00 0.00000E+00 2.00000E-03
 -1         9 0.00000E+00 0.00000E+00 0.00000E+00
 -1        10 0.00000E+00 0.00000E+00 1.00000E-03
 -1        11 0.00000E+00 0.00000E+00 2.00000E-03
 -1        12 0.00000E+00 0.00000E+00 1.00000E-03
 -1        13 0.00000E+00 0.00000E+00 0.00000E+00
 -1        14 0.00000E+00 0.00000E+00 0.00000E+00
 -1        15 0.00000E+00 0.00000E+00 2.00000E-03
 -1        16 0.00000E+00 0.00000E+00 2.00000E-03
 -1        17 0.00000E+00 0.00000E+00 0.00000E+00
 -1        18 0.00000E+00 0.00000E+00 1.00000E-03
 -1        19 0.00000E+00 0.00000E+00 2.00000E-03
 -1        20 0.00000E+00 0.00000E+00 1.00000E-03
 -3
    1PSTEP                       242          49           1          
  100CL  149 64104.86657          20                     0   49           1
 -4  STRESS      6    1
 -5  SXX         1    4    1    1
 -5  SYY         1    4    2    2
 -5  SZZ         1    4    3    3
 -5  SXY         1    4    1    2
 -5  SYZ         1    4    2    3
 -5  SZX         1    4    3    1
 -1         1 1.65615E+02 1.65615E+02 2.68747E+02 0.00000E+00 2.12743E-14 3.70809E-14
 -1         2 1.65615E+02 1.65615E+02 2.68747E+02 0.00000E+00-3.34595E-14-4.17027E-14
 -1         3 1.65615E+02 1.65615E+02 2.68747E+02 0.00000E+00-5.20394E-15-6.18046E-14
 -1         4 1.65615E+02 1.65615E+02 2.68747E+02 0.00000E+00-1.19052E-14 9.08290E-14
 -1         5 1.65615E+02 1.65615E+02 2.68747E+02 0.00000E+00 1.52724E-14-1.30583E-14
 -1         6 1.65615E+02 1.65615E+02 2.68747E+02 0.00000E+00-1.10282E-14 4.46998E-16
 -1         7 1.65615E+02 1.65615E+02 2.68747E+02 0.00000E+00 9.96444E-14 7.28703E-14
 -1         8 1.65615E+02 1.65615E+02 2.68747E+02 0.00000E+00-1.51349E-16-1.94158E-14
 -1         9 1.65629E+02 1.65629E+02 2.68771E+02 0.00000E+00-2.15965E-14-1.05505E-14
 -1        10 1.65629E+02 1.65629E+02 2.68771E+02 0.00000E+00 2.27109E-14 1.98665E-14
 -1        11 1.65629E+02 1.65629E+02 2.68771E+02 0.00000E+00 1.31291E-14 1.15391E-14
 -1        12 1.65629E+02 1.65629E+02 2.68771E+02 0.00000E+00 1.24834E-14 8.85862E-15
 -1        13 1.65629E+02 1.65629E+02 2.68771E+02 0.00000E+00-8.87510E-15-1.30668E-15
 -1        14 1.65629E+02 1.65629E+02 2.68771E+02 0.00000E+00 2.11511E-14 4.61085E-15
 -1        15 1.65629E+02 1.65629E+02 2.68771E+02 0.00000E+00-6.00030E-14 1.28544E-14
 -1        16 1.65629E+02 1.65629E+02 2.68771E+02 0.00000E+00 2.29557E-14 2.15550E-14
 -1        17 1.65629E+02 1.65629E+02 2.68771E+02 0.00000E+00-2.50991E-15 1.17321E-14
 -1        18 1.65629E+02 1.65629E+02 2.68771E+02 0.00000E+00 3.14303E-14-4.04892E-14
 -1        19 1.65629E+02 1.65629E+02 2.68771E+02 0.00000E+00 2.69745E-14-5.78140E-15
 -1        20 1.65629E+02 1.65629E+02 2.68771E+02 0.00000E+00 1.18840E-14 2.30489E-14
 -3
    1PSTEP                       243          49           1          
  100CL  149 64104.86657          20                     0   49           1
 -4  TOSTRAIN    6    1
 -5  EXX         1    4    1    1
 -5  EYY         1    4    2    2
 -5  EZZ         1    4    3    3
 -5  EXY         1    4    1    2
 -5  EYZ         1    4    2    3
 -5  EZX         1    4    3    1
 -1         1 0.00000E+00 0.00000E+00 1.99992E-03 0.00000E+00 4.12546E-19 7.19066E-19
 -1         2 0.00000E+00 0.00000E+00 1.99992E-03 0.00000E+00-6.48839E-19-8.08690E-19
 -1         3 0.00000E+00 0.00000E+00 1.99992E-03 0.00000E+00-1.00914E-19-1.19850E-18
 -1         4 0.00000E+00 0.00000E+00 1.99992E-03 0.00000E+00-2.30863E-19 1.76134E-18
 -1         5 0.00000E+00 0.00000E+00 1.99992E-03 0.00000E+00 2.96159E-19-2.53224E-19
 -1         6 0.00000E+00 0.00000E+00 1.99992E-03 0.00000E+00-2.13856E-19 8.66809E-21
 -1         7 0.00000E+00 0.00000E+00 1.99992E-03 0.00000E+00 1.93228E-18 1.41309E-18
 -1         8 0.00000E+00 0.00000E+00 1.99992E-03 0.00000E+00-2.93494E-21-3.76507E-19
 -1         9 0.00000E+00 0.00000E+00 2.00010E-03 0.00000E+00-4.18795E-19-2.04593E-19
 -1        10 0.00000E+00 0.00000E+00 2.00010E-03 0.00000E+00 4.40404E-19 3.85247E-19
 -1        11 0.00000E+00 0.00000E+00 2.00010E-03 0.00000E+00 2.54597E-19 2.23763E-19
 -1        12 0.00000E+00 0.00000E+00 2.00010E-03 0.00000E+00 2.42075E-19 1.71784E-19
 -1        13 0.00000E+00 0.00000E+00 2.00010E-03 0.00000E+00-1.72104E-19-2.53389E-20
 -1        14 0.00000E+00 0.00000E+00 2.00010E-03 0.00000E+00 4.10158E-19 8.94127E-20
 -1        15 0.00000E+00 0.00000E+00 2.00010E-03 0.00000E+00-1.16356E-18 2.49269E-19
 -1        16 0.00000E+00 0.00000E+00 2.00010E-03 0.00000E+00 4.45153E-19 4.17991E-19
 -1        17 0.00000E+00 0.00000E+00 2.00010E-03 0.00000E+00-4.86716E-20 2.27507E-19
 -1        18 0.00000E+00 0.00000E+00 2.00010E-03 0.00000E+00 6.09490E-19-7.85158E-19
 -1        19 0.00000E+00 0.00000E+00 2.00010E-03 0.00000E+00 5.23083E-19-1.12112E-19
 -1        20 0.00000E+00 0.00000E+00 2.00010E-03 0.00000E+00 2.30452E-19 4.46960E-19
 -3
    1PSTEP                       244          49           1          
  100CL  149 64104.86657          20                     0   49           1
 -4  FORC        4    1
 -5  F1          1    2    1    0
 -5  F2          1    2    2    0
 -5  F3          1    2    3    0
 -5  ALL         1    2    0    0    1ALL
 -1         1-1.38018E+01-1.38018E+01 2.23965E+01
 -1         2-1.38018E+01 1.38018E+01 2.23965E+01
 -1         3-1.38018E+01 1.38018E+01-2.23965E+01
 -1         4-1.38018E+01-1.38018E+01-2.23965E+01
 -1         5 1.38018E+01-1.38018E+01 2.23965E+01
 -1         6 1.38018E+01 1.38018E+01 2.23965E+01
 -1         7 1.38018E+01 1.38018E+01-2.23965E+01
 -1         8 1.38018E+01-1.38018E+01-2.23965E+01
 -1         9 5.52071E+01-6.28012E-15-8.95859E+01
 -1        10 5.52071E+01-5.52071E+01 9.54792E-15
 -1        11 5.52071E+01 7.58463E-15 8.95859E+01
 -1        12 5.52071E+01 5.52071E+01 3.26961E-14
 -1        13-1.21780E-15 5.52071E+01-8.95859E+01
 -1        14 3.13928E-15-5.52071E+01-8.95859E+01
 -1        15 1.08495E-14-5.52071E+01 8.95859E+01
 -1        16 6.68565E-15 5.52071E+01 8.95859E+01
 -1        17-5.52071E+01-4.98502E-16-8.95859E+01
 -1        18-5.52071E+01-5.52071E+01 1.77636E-15
 -1        19-5.52071E+01 2.05281E-15 8.95859E+01
 -1        20-5.52071E+01 5.52071E+01 2.66454E-15
 -3
    1PSTEP                       245          49           1          
  100CL  149 64104.86657          20                     0   49           1
 -4  ERROR       1    1
 -5  STR(%)      1    1    0    0
 -1         1 1.40640E-14
 -1         2 1.40640E-14
 -1         3 1.40640E-14
 -1         4 1.40640E-14
 -1         5 1.40640E-14
 -1         6 1.40640E-14
 -1         7 1.40640E-14
 -1         8 1.40640E-14
 -1         9 1.40640E-14
 -1        10 1.40640E-14
 -1        11 1.40640E-14
 -1        12 1.40640E-14
 -1        13 1.40640E-14
 -1        14 1.40640E-14
 -1        15 1.40640E-14
 -1        16 1.40640E-14
 -1        17 1.40640E-14
 -1        18 1.40640E-14
 -1        19 1.40640E-14
 -1        20 1.40640E-14
 -3
    1PSTEP                       246          50           1          
  100CL  150 66445.18599          20                     0   50           1
 -4  DISP        4    1
 -5  D1          1    2    1    0
 -5  D2          1    2    2    0
 -5  D3          1    2    3    0
 -5  ALL         1    2    0    0    1ALL
 -1         1 0.00000E+00 0.00000E+00 0.00000E+00
 -1         2 0.00000E+00 0.00000E+00 0.00000E+00
 -1         3 0.00000E+00 0.00000E+00 2.00000E-03
 -1         4 0.00000E+00 0.00000E+00 2.00000E-03
 -1         5 0.00000E+00 0.00000E+00 0.00000E+00
 -1         6 0.00000E+00 0.00000E+00 0.00000E+00
 -1         7 0.00000E+00 0.00000E+00 2.00000E-03
 -1         8 0.00000E+00 0.00000E+00 2.00000E-03
 -1         9 0.00000E+00 0.00000E+00 0.00000E+00
 -1        10 0.00000E+00 0.00000E+00 1.00000E-03
 -1        11 0.00000E+00 0.00000E+00 2.00000E-03
 -1        12 0.00000E+00 0.00000E+00 1.00000E-03
 -1        13 0.00000E+00 0.00000E+00 0.00000E+00
 -1        14 0.00000E+00 0.00000E+00 0.00000E+00
 -1        15 0.00000E+00 0.00000E+00 2.00000E-03
 -1        16 0.00000E+00 0.00000E+00 2.00000E-03
 -1        17 0.00000E+00 0.00000E+00 0.00000E+00
 -1        18 0.00000E+00 0.00000E+00 1.00000E-03
 -1        19 0.00000E+00 0.00000E+00 2.00000E-03
 -1        20 0.00000E+00 0.00000E+00 1.00000E-03
 -3
    1PSTEP                       247          50           1          
  100CL  150 66445.18599          20                     0   50           1
 -4  STRESS      6    1
 -5  SXX         1    4    1    1
 -5  SYY         1    4    2    2
 -5  SZZ         1    4    3    3
 -5  SXY         1    4    1    2
 -5  SYZ         1    4    2    3
 -5  SZX         1    4    3    1
 -1         1 1.65935E+02 1.65935E+02 2.68106E+02 0.00000E+00 2.10760E-14 3.67354E-14
 -1         2 1.65935E+02 1.65935E+02 2.68106E+02 0.00000E+00-3.31476E-14-4.13140E-14
 -1         3 1.65935E+02 1.65935E+02 2.68106E+02 0.00000E+00-5.15544E-15-6.12286E-14
 -1         4 1.65935E+02 1.65935E+02 2.68106E+02 0.00000E+00-1.17942E-14 8.99826E-14
 -1         5 1.65935E+02 1.65935E+02 2.68106E+02 0.00000E+00 1.51300E-14-1.29366E-14
 -1         6 1.65935E+02 1.65935E+02 2.68106E+02 0.00000E+00-1.09254E-14 4.42832E-16
 -1         7 1.65935E+02 1.65935E+02 2.68106E+02 0.00000E+00 9.87158E-14 7.21912E-14
 -1         8 1.65935E+02 1.65935E+02 2.68106E+02 0.00000E+00-1.49939E-16-1.92348E-14
 -1         9 1.65950E+02 1.65950E+02 2.68130E+02 0.00000E+00-2.13953E-14-1.04522E-14
 -1        10 1.65950E+02 1.65950E+02 2.68130E+02 0.00000E+00 2.24992E-14 1.96814E-14
 -1        11 1.65950E+02 1.65950E+02 2.68130E+02 0.00000E+00 1.30067E-14 1.14315E-14
 -1        12 1.65950E+02 1.65950E+02 2.68130E+02 0.00000E+00 1.23670E-14 8.77606E-15
 -1        13 1.65950E+02 1.65950E+02 2.68130E+02 0.00000E+00-8.79240E-15-1.29451E-15
 -1        14 1.65950E+02 1.65950E+02 2.68130E+02 0.00000E+00 2.09540E-14 4.56788E-15
 -1        15 1.65950E+02 1.65950E+02 2.68130E+02 0.00000E+00-5.94438E-14 1.27346E-14
 -1        16 1.65950E+02 1.65950E+02 2.68130E+02 0.00000E+00 2.27418E-14 2.13542E-14
 -1        17 1.65950E+02 1.65950E+02 2.68130E+02 0.00000E+00-2.48652E-15 1.16228E-14
 -1        18 1.65950E+02 1.65950E+02 2.68130E+02 0.00000E+00 3.11374E-14-4.01119E-14
 -1        19 1.65950E+02 1.65950E+02 2.68130E+02 0.00000E+00 2.67231E-14-5.72752E-15
 -1        20 1.65950E+02 1.65950E+02 2.68130E+02 0.00000E+00 1.17732E-14 2.28341E-14
 -3
    1PSTEP                       248          50           1          
  100CL  150 66445.18599          20                     0   50           1
 -4  TOSTRAIN    6    1
 -5  EXX         1    4    1    1
 -5  EYY         1    4    2    2
 -5  EZZ         1    4    3    3
 -5  EXY         1    4    1    2
 -5  EYZ         1    4    2    3
 -5  EZX         1    4    3    1
 -1         1 0.00000E+00 0.00000E+00 1.99992E-03 0.00000E+00 4.12546E-19 7.19066E-19
 -1         2 0.00000E+00 0.00000E+00 1.99992E-03 0.00000E+00-6.48839E-19-8.08690E-19
 -1         3 0.00000E+00 0.00000E+00 1.99992E-03 0.00000E+00-1.00914E-19-1.19850E-18
 -1         4 0.00000E+00 0.00000E+00 1.99992E-03 0.00000E+00-2.30863E-19 1.76134E-18
 -1         5 0.00000E+00 0.00000E+00 1.99992E-03 0.00000E+00 2.96159E-19-2.53224E-19
 -1         6 0.00000E+00 0.00000E+00 1.99992E-03 0.00000E+00-2.13856E-19 8.66809E-21
 -1         7 0.00000E+00 0.00000E+00 1.99992E-03 0.00000E+00 1.93228E-18 1.41309E-18
 -1         8 0.00000E+00 0.00000E+00 1.99992E-03 0.00000E+00-2.93494E-21-3.76507E-19
 -1         9 0.00000E+00 0.00000E+00 2.00010E-03 0.00000E+00-4.18795E-19-2.04593E-19
 -1        10 0.00000E+00 0.00000E+00 2.00010E-03 0.00000E+00 4.40404E-19 3.85247E-19
 -1        11 0.00000E+00 0.00000E+00 2.00010E-03 0.00000E+00 2.54597E-19 2.23763E-19
 -1        12 0.00000E+00 0.00000E+00 2.00010E-03 0.00000E+00 2.42075E-19 1.71784E-19
 -1        13 0.00000E+00 0.00000E+00 2.00010E-03 0.00000E+00-1.72104E-19-2.53389E-20
 -1        14 0.00000E+00 0.00000E+00 2.00010E-03 0.00000E+00 4.10158E-19 8.94127E-20
 -1        15 0.00000E+00 0.00000E+00 2.00010E-03 0.00000E+00-1.16356E-18 2.49269E-19
 -1        16 0.00000E+00 0.00000E+00 2.00010E-03 0.00000E+00 4.45153E-19 4.17991E-19
 -1        17 0.00000E+00 0.00000E+00 2.00010E-03 0.00000E+00-4.86716E-20 2.27507E-19
 -1        18 0.00000E+00 0.00000E+00 2.00010E-03 0.00000E+00 6.09490E-19-7.85158E-19
 -1        19 0.00000E+00 0.00000E+00 2.00010E-03 0.00000E+00 5.23083E-19-1.12112E-19
 -1        20 0.00000E+00 0.00000E+00 2.00010E-03 0.00000E+00 2.30452E-19 4.46960E-19
 -3
    1PSTEP                       249          50           1          
  100CL  150 66445.18599          20                     0   50           1
 -4  FORC        4    1
 -5  F1          1    2    1    0
 -5  F2          1    2    2    0
 -5  F3          1    2    3    0
 -5  ALL         1    2    0    0    1ALL
 -1         1-1.38285E+01-1.38285E+01 2.23431E+01
 -1         2-1.38285E+01 1.38285E+01 2.23431E+01
 -1         3-1.38285E+01 1.38285E+01-2.23431E+01
 -1         4-1.38285E+01-1.38285E+01-2.23431E+01
 -1         5 1.38285E+01-1.38285E+01 2.23431E+01
 -1         6 1.38285E+01 1.38285E+01 2.23431E+01
 -1         7 1.38285E+01 1.38285E+01-2.23431E+01
 -1         8 1.38285E+01-1.38285E+01-2.23431E+01
 -1         9 5.53139E+01-8.91657E-15-8.93723E+01
 -1        10 5.53139E+01-5.53139E+01-5.55112E-15
 -1        11 5.53139E+01 6.25204E-15 8.93723E+01
 -1        12 5.53139E+01 5.53139E+01 1.73750E-14
 -1        13-4.88131E-15 5.53139E+01-8.93723E+01
 -1        14 1.66858E-14-5.53139E+01-8.93723E+01
 -1        15 1.89610E-16-5.53139E+01 8.93723E+01
 -1        16 5.13111E-15 5.53139E+01 8.93723E+01
 -1        17-5.53139E+01 3.92253E-16-8.93723E+01
 -1        18-5.53139E+01-5.53139E+01-5.32907E-15
 -1        19-5.53139E+01 3.82659E-15 8.93723E+01
 -1        20-5.53139E+01 5.53139E+01 4.44089E-16
 -3
    1PSTEP                       250          50           1          
  100CL  150 66445.18599          20                     0   50           1
 -4  ERROR       1    1
 -5  STR(%)      1    1    0    0
 -1         1 2.27730E-14
 -1         2 2.27730E-14
 -1         3 2.27730E-14
 -1         4 2.27730E-14
 -1         5 2.27730E-14
 -1         6 2.27730E-14
 -1         7 2.27730E-14
 -1         8 2.27730E-14
 -1         9 2.27730E-14
 -1        10 2.27730E-14
 -1        11 2.27730E-14
 -1        12 2.27730E-14
 -1        13 2.27730E-14
 -1        14 2.27730E-14
 -1        15 2.27730E-14
 -1        16 2.27730E-14
 -1        17 2.27730E-14
 -1        18 2.27730E-14
 -1        19 2.27730E-14
 -1        20 2.27730E-14
 -3
    1PSTEP                       251          51           1          
  100CL  151 67932.72805          20                     0   51           1
 -4  DISP        4    1
 -5  D1          1    2    1    0
 -5  D2          1    2    2    0
 -5  D3          1    2    3    0
 -5  ALL         1    2    0    0    1ALL
 -1         1 0.00000E+00 0.00000E+00 0.00000E+00
 -1         2 0.00000E+00 0.00000E+00 0.00000E+00
 -1         3 0.00000E+00 0.00000E+00 2.00000E-03
 -1         4 0.00000E+00 0.00000E+00 2.00000E-03
 -1         5 0.00000E+00 0.00000E+00 0.00000E+00
 -1         6 0.00000E+00 0.00000E+00 0.00000E+00
 -1         7 0.00000E+00 0.00000E+00 2.00000E-03
 -1         8 0.00000E+00 0.00000E+00 2.00000E-03
 -1         9 0.00000E+00 0.00000E+00 0.00000E+00
 -1        10 0.00000E+00 0.00000E+00 1.00000E-03
 -1        11 0.00000E+00 0.00000E+00 2.00000E-03
 -1        12 0.00000E+00 0.00000E+00 1.00000E-03
 -1        13 0.00000E+00 0.00000E+00 0.00000E+00
 -1        14 0.00000E+00 0.00000E+00 0.00000E+00
 -1        15 0.00000E+00 0.00000E+00 2.00000E-03
 -1        16 0.00000E+00 0.00000E+00 2.00000E-03
 -1        17 0.00000E+00 0.00000E+00 0.00000E+00
 -1        18 0.00000E+00 0.00000E+00 1.00000E-03
 -1        19 0.00000E+00 0.00000E+00 2.00000E-03
 -1        20 0.00000E+00 0.00000E+00 1.00000E-03
 -3
    1PSTEP                       252          51           1          
  100CL  151 67932.72805          20                     0   51           1
 -4  STRESS      6    1
 -5  SXX         1    4    1    1
 -5  SYY         1    4    2    2
 -5  SZZ         1    4    3    3
 -5  SXY         1    4    1    2
 -5  SYZ         1    4    2    3
 -5  SZX         1    4    3    1
 -1         1 1.66137E+02 1.66137E+02 2.67701E+02 0.00000E+00 2.09507E-14 3.65170E-14
 -1         2 1.66137E+02 1.66137E+02 2.67701E+02 0.00000E+00-3.29506E-14-4.10685E-14
 -1         3 1.66137E+02 1.66137E+02 2.67701E+02 0.00000E+00-5.12480E-15-6.08647E-14
 -1         4 1.66137E+02 1.66137E+02 2.67701E+02 0.00000E+00-1.17241E-14 8.94477E-14
 -1         5 1.66137E+02 1.66137E+02 2.67701E+02 0.00000E+00 1.50401E-14-1.28597E-14
 -1         6 1.66137E+02 1.66137E+02 2.67701E+02 0.00000E+00-1.08605E-14 4.40201E-16
 -1         7 1.66137E+02 1.66137E+02 2.67701E+02 0.00000E+00 9.81291E-14 7.17622E-14
 -1         8 1.66137E+02 1.66137E+02 2.67701E+02 0.00000E+00-1.49048E-16-1.91205E-14
 -1         9 1.66152E+02 1.66152E+02 2.67725E+02 0.00000E+00-2.12681E-14-1.03900E-14
 -1        10 1.66152E+02 1.66152E+02 2.67725E+02 0.00000E+00 2.23655E-14 1.95644E-14
 -1        11 1.66152E+02 1.66152E+02 2.67725E+02 0.00000E+00 1.29294E-14 1.13636E-14
 -1        12 1.66152E+02 1.66152E+02 2.67725E+02 0.00000E+00 1.22935E-14 8.72390E-15
 -1        13 1.66152E+02 1.66152E+02 2.67725E+02 0.00000E+00-8.74014E-15-1.28681E-15
 -1        14 1.66152E+02 1.66152E+02 2.67725E+02 0.00000E+00 2.08295E-14 4.54074E-15
 -1        15 1.66152E+02 1.66152E+02 2.67725E+02 0.00000E+00-5.90905E-14 1.26589E-14
 -1        16 1.66152E+02 1.66152E+02 2.67725E+02 0.00000E+00 2.26067E-14 2.12272E-14
 -1        17 1.66152E+02 1.66152E+02 2.67725E+02 0.00000E+00-2.47174E-15 1.15537E-14
 -1        18 1.66152E+02 1.66152E+02 2.67725E+02 0.00000E+00 3.09524E-14-3.98735E-14
 -1        19 1.66152E+02 1.66152E+02 2.67725E+02 0.00000E+00 2.65643E-14-5.69348E-15
 -1        20 1.66152E+02 1.66152E+02 2.67725E+02 0.00000E+00 1.17033E-14 2.26984E-14
 -3
    1PSTEP                       253          51           1          
  100CL  151 67932.72805          20                     0   51           1
 -4  TOSTRAIN    6    1
 -5  EXX         1    4    1    1
 -5  EYY         1    4    2    2
 -5  EZZ         1    4    3    3
 -5  EXY         1    4    1    2
 -5  EYZ         1    4    2    3
 -5  EZX         1    4    3    1
 -1         1 0.00000E+00 0.00000E+00 1.99992E-03 0.00000E+00 4.12546E-19 7.19066E-19
 -1         2 0.00000E+00 0.00000E+00 1.99992E-03 0.00000E+00-6.48839E-19-8.08690E-19
 -1         3 0.00000E+00 0.00000E+00 1.99992E-03 0.00000E+00-1.00914E-19-1.19850E-18
 -1         4 0.00000E+00 0.00000E+00 1.99992E-03 0.00000E+00-2.30863E-19 1.76134E-18
 -1         5 0.00000E+00 0.00000E+00 1.99992E-03 0.00000E+00 2.96159E-19-2.53224E-19
 -1         6 0.00000E+00 0.00000E+00 1.99992E-03 0.00000E+00-2.13856E-19 8.66809E-21
 -1         7 0.00000E+00 0.00000E+00 1.99992E-03 0.00000E+00 1.93228E-18 1.41309E-18
 -1         8 0.00000E+00 0.00000E+00 1.99992E-03 0.00000E+00-2.93494E-21-3.76507E-19
 -1         9 0.00000E+00 0.00000E+00 2.00010E-03 0.00000E+00-4.18795E-19-2.04593E-19
 -1        10 0.00000E+00 0.00000E+00 2.00010E-03 0.00000E+00 4.40404E-19 3.85247E-19
 -1        11 0.00000E+00 0.00000E+00 2.00010E-03 0.00000E+00 2.54597E-19 2.23763E-19
 -1        12 0.00000E+00 0.00000E+00 2.00010E-03 0.00000E+00 2.42075E-19 1.71784E-19
 -1        13 0.00000E+00 0.00000E+00 2.00010E-03 0.00000E+00-1.72104E-19-2.53389E-20
 -1        14 0.00000E+00 0.00000E+00 2.00010E-03 0.00000E+00 4.10158E-19 8.94127E-20
 -1        15 0.00000E+00 0.00000E+00 2.00010E-03 0.00000E+00-1.16356E-18 2.49269E-19
 -1        16 0.00000E+00 0.00000E+00 2.00010E-03 0.00000E+00 4.45153E-19 4.17991E-19
 -1        17 0.00000E+00 0.00000E+00 2.00010E-03 0.00000E+00-4.86716E-20 2.27507E-19
 -1        18 0.00000E+00 0.00000E+00 2.00010E-03 0.00000E+00 6.09490E-19-7.85158E-19
 -1        19 0.00000E+00 0.00000E+00 2.00010E-03 0.00000E+00 5.23083E-19-1.12112E-19
 -1        20 0.00000E+00 0.00000E+00 2.00010E-03 0.00000E+00 2.30452E-19 4.46960E-19
 -3
    1PSTEP                       254          51           1          
  100CL  151 67932.72805          20                     0   51           1
 -4  FORC        4    1
 -5  F1          1    2    1    0
 -5  F2          1    2    2    0
 -5  F3          1    2    3    0
 -5  ALL         1    2    0    0    1ALL
 -1         1-1.38453E+01-1.38453E+01 2.23093E+01
 -1         2-1.38453E+01 1.38453E+01 2.23093E+01
 -1         3-1.38453E+01 1.38453E+01-2.23093E+01
 -1         4-1.38453E+01-1.38453E+01-2.23093E+01
 -1         5 1.38453E+01-1.38453E+01 2.23093E+01
 -1         6 1.38453E+01 1.38453E+01 2.23093E+01
 -1         7 1.38453E+01 1.38453E+01-2.23093E+01
 -1         8 1.38453E+01-1.38453E+01-2.23093E+01
 -1         9 5.53813E+01-5.94652E-15-8.92373E+01
 -1        10 5.53813E+01-5.53813E+01 1.99840E-15
 -1        11 5.53813E+01 3.36525E-15 8.92373E+01
 -1        12 5.53813E+01 5.53813E+01 1.65978E-14
 -1        13 3.88960E-15 5.53813E+01-8.92373E+01
 -1        14 2.15719E-14-5.53813E+01-8.92373E+01
 -1        15-8.69330E-15-5.53813E+01 8.92373E+01
 -1        16-4.19491E-15 5.53813E+01 8.92373E+01
 -1        17-5.53813E+01-4.94298E-16-8.92373E+01
 -1        18-5.53813E+01-5.53813E+01-5.32907E-15
 -1        19-5.53813E+01 2.72253E-16 8.92373E+01
 -1        20-5.53813E+01 5.53813E+01 4.88498E-15
 -3
    1PSTEP                       255          51           1          
  100CL  151 67932.72805          20                     0   51           1
 -4  ERROR       1    1
 -5  STR(%)      1    1    0    0
 -1         1 9.77463E-15
 -1         2 9.77463E-15
 -1         3 9.77463E-15
 -1         4 9.77463E-15
 -1         5 9.77463E-15
 -1         6 9.77463E-15
 -1         7 9.77463E-15
 -1         8 9.77463E-15
 -1         9 9.77463E-15
 -1        10 9.77463E-15
 -1        11 9.77463E-15
 -1        12 9.77463E-15
 -1        13 9.77463E-15
 -1        14 9.77463E-15
 -1        15 9.77463E-15
 -1        16 9.77463E-15
 -1        17 9.77463E-15
 -1        18 9.77463E-15
 -1        19 9.77463E-15
 -1        20 9.77463E-15
 -3
    1PSTEP                       256          52           1          
  100CL  152 69420.27012          20                     0   52           1
 -4  DISP        4    1
 -5  D1          1    2    1    0
 -5  D2          1    2    2    0
 -5  D3          1    2    3    0
 -5  ALL         1    2    0    0    1ALL
 -1         1 0.00000E+00 0.00000E+00 0.00000E+00
 -1         2 0.00000E+00 0.00000E+00 0.00000E+00
 -1         3 0.00000E+00 0.00000E+00 2.00000E-03
 -1         4 0.00000E+00 0.00000E+00 2.00000E-03
 -1         5 0.00000E+00 0.00000E+00 0.00000E+00
 -1         6 0.00000E+00 0.00000E+00 0.00000E+00
 -1         7 0.00000E+00 0.00000E+00 2.00000E-03
 -1         8 0.00000E+00 0.00000E+00 2.00000E-03
 -1         9 0.00000E+00 0.00000E+00 0.00000E+00
 -1        10 0.00000E+00 0.00000E+00 1.00000E-03
 -1        11 0.00000E+00 0.00000E+00 2.00000E-03
 -1        12 0.00000E+00 0.00000E+00 1.00000E-03
 -1        13 0.00000E+00 0.00000E+00 0.00000E+00
 -1        14 0.00000E+00 0.00000E+00 0.00000E+00
 -1        15 0.00000E+00 0.00000E+00 2.00000E-03
 -1        16 0.00000E+00 0.00000E+00 2.00000E-03
 -1        17 0.00000E+00 0.00000E+00 0.00000E+00
 -1        18 0.00000E+00 0.00000E+00 1.00000E-03
 -1        19 0.00000E+00 0.00000E+00 2.00000E-03
 -1        20 0.00000E+00 0.00000E+00 1.00000E-03
 -3
    1PSTEP                       257          52           1          
  100CL  152 69420.27012          20                     0   52           1
 -4  STRESS      6    1
 -5  SXX         1    4    1    1
 -5  SYY         1    4    2    2
 -5  SZZ         1    4    3    3
 -5  SXY         1    4    1    2
 -5  SYZ         1    4    2    3
 -5  SZX         1    4    3    1
 -1         1 1.66339E+02 1.66339E+02 2.67299E+02 0.00000E+00 2.08262E-14 3.63000E-14
 -1         2 1.66339E+02 1.66339E+02 2.67299E+02 0.00000E+00-3.27548E-14-4.08244E-14
 -1         3 1.66339E+02 1.66339E+02 2.67299E+02 0.00000E+00-5.09434E-15-6.05030E-14
 -1         4 1.66339E+02 1.66339E+02 2.67299E+02 0.00000E+00-1.16545E-14 8.89161E-14
 -1         5 1.66339E+02 1.66339E+02 2.67299E+02 0.00000E+00 1.49507E-14-1.27833E-14
 -1         6 1.66339E+02 1.66339E+02 2.67299E+02 0.00000E+00-1.07959E-14 4.37584E-16
 -1         7 1.66339E+02 1.66339E+02 2.67299E+02 0.00000E+00 9.75458E-14 7.13356E-14
 -1         8 1.66339E+02 1.66339E+02 2.67299E+02 0.00000E+00-1.48162E-16-1.90069E-14
 -1         9 1.66354E+02 1.66354E+02 2.67323E+02 0.00000E+00-2.11417E-14-1.03283E-14
 -1        10 1.66354E+02 1.66354E+02 2.67323E+02 0.00000E+00 2.22326E-14 1.94481E-14
 -1        11 1.66354E+02 1.66354E+02 2.67323E+02 0.00000E+00 1.28526E-14 1.12961E-14
 -1        12 1.66354E+02 1.66354E+02 2.67323E+02 0.00000E+00 1.22205E-14 8.67205E-15
 -1        13 1.66354E+02 1.66354E+02 2.67323E+02 0.00000E+00-8.68819E-15-1.27917E-15
 -1        14 1.66354E+02 1.66354E+02 2.67323E+02 0.00000E+00 2.07057E-14 4.51375E-15
 -1        15 1.66354E+02 1.66354E+02 2.67323E+02 0.00000E+00-5.87393E-14 1.25836E-14
 -1        16 1.66354E+02 1.66354E+02 2.67323E+02 0.00000E+00 2.24723E-14 2.11011E-14
 -1        17 1.66354E+02 1.66354E+02 2.67323E+02 0.00000E+00-2.45705E-15 1.14850E-14
 -1        18 1.66354E+02 1.66354E+02 2.67323E+02 0.00000E+00 3.07684E-14-3.96365E-14
 -1        19 1.66354E+02 1.66354E+02 2.67323E+02 0.00000E+00 2.64064E-14-5.65964E-15
 -1        20 1.66354E+02 1.66354E+02 2.67323E+02 0.00000E+00 1.16337E-14 2.25635E-14
 -3
    1PSTEP                       258          52           1          
  100CL  152 69420.27012          20                     0   52           1
 -4  TOSTRAIN    6    1
 -5  EXX         1    4    1    1
 -5  EYY         1    4    2    2
 -5  EZZ         1    4    3    3
 -5  EXY         1    4    1    2
 -5  EYZ         1    4    2    3
 -5  EZX         1    4    3    1
 -1         1 0.00000E+00 0.00000E+00 1.99992E-03 0.00000E+00 4.12546E-19 7.19066E-19
 -1         2 0.00000E+00 0.00000E+00 1.99992E-03 0.00000E+00-6.48839E-19-8.08690E-19
 -1         3 0.00000E+00 0.00000E+00 1.99992E-03 0.00000E+00-1.00914E-19-1.19850E-18
 -1         4 0.00000E+00 0.00000E+00 1.99992E-03 0.00000E+00-2.30863E-19 1.76134E-18
 -1         5 0.00000E+00 0.00000E+00 1.99992E-03 0.00000E+00 2.96159E-19-2.53224E-19
 -1         6 0.00000E+00 0.00000E+00 1.99992E-03 0.00000E+00-2.13856E-19 8.66809E-21
 -1         7 0.00000E+00 0.00000E+00 1.99992E-03 0.00000E+00 1.93228E-18 1.41309E-18
 -1         8 0.00000E+00 0.00000E+00 1.99992E-03 0.00000E+00-2.93494E-21-3.76507E-19
 -1         9 0.00000E+00 0.00000E+00 2.00010E-03 0.00000E+00-4.18795E-19-2.04593E-19
 -1        10 0.00000E+00 0.00000E+00 2.00010E-03 0.00000E+00 4.40404E-19 3.85247E-19
 -1        11 0.00000E+00 0.00000E+00 2.00010E-03 0.00000E+00 2.54597E-19 2.23763E-19
 -1        12 0.00000E+00 0.00000E+00 2.00010E-03 0.00000E+00 2.42075E-19 1.71784E-19
 -1        13 0.00000E+00 0.00000E+00 2.00010E-03 0.00000E+00-1.72104E-19-2.53389E-20
 -1        14 0.00000E+00 0.00000E+00 2.00010E-03 0.00000E+00 4.10158E-19 8.94127E-20
 -1        15 0.00000E+00 0.00000E+00 2.00010E-03 0.00000E+00-1.16356E-18 2.49269E-19
 -1        16 0.00000E+00 0.00000E+00 2.00010E-03 0.00000E+00 4.45153E-19 4.17991E-19
 -1        17 0.00000E+00 0.00000E+00 2.00010E-03 0.00000E+00-4.86716E-20 2.27507E-19
 -1        18 0.00000E+00 0.00000E+00 2.00010E-03 0.00000E+00 6.09490E-19-7.85158E-19
 -1        19 0.00000E+00 0.00000E+00 2.00010E-03 0.00000E+00 5.23083E-19-1.12112E-19
 -1        20 0.00000E+00 0.00000E+00 2.00010E-03 0.00000E+00 2.30452E-19 4.46960E-19
 -3
    1PSTEP                       259          52           1          
  100CL  152 69420.27012          20                     0   52           1
 -4  FORC        4    1
 -5  F1          1    2    1    0
 -5  F2          1    2    2    0
 -5  F3          1    2    3    0
 -5  ALL         1    2    0    0    1ALL
 -1         1-1.38621E+01-1.38621E+01 2.22758E+01
 -1         2-1.38621E+01 1.38621E+01 2.22758E+01
 -1         3-1.38621E+01 1.38621E+01-2.22758E+01
 -1         4-1.38621E+01-1.38621E+01-2.22758E+01
 -1         5 1.38621E+01-1.38621E+01 2.22758E+01
 -1         6 1.38621E+01 1.38621E+01 2.22758E+01
 -1         7 1.38621E+01 1.38621E+01-2.22758E+01
 -1         8 1.38621E+01-1.38621E+01-2.22758E+01
 -1         9 5.54484E+01-8.69411E-15-8.91032E+01
 -1        10 5.54484E+01-5.54484E+01-1.77636E-15
 -1        11 5.54484E+01 7.13980E-15 8.91032E+01
 -1        12 5.54484E+01 5.54484E+01 1.80689E-14
 -1        13 3.25136E-15 5.54484E+01-8.91032E+01
 -1        14 1.06928E-14-5.54484E+01-8.91032E+01
 -1        15-3.36535E-15-5.54484E+01 8.91032E+01
 -1        16-8.64380E-16 5.54484E+01 8.91032E+01
 -1        17-5.54484E+01 3.95499E-16-8.91032E+01
 -1        18-5.54484E+01-5.54484E+01-1.77636E-15
 -1        19-5.54484E+01 3.82335E-15 8.91032E+01
 -1        20-5.54484E+01 5.54484E+01 1.33227E-15
 -3
    1PSTEP                       260          52           1          
  100CL  152 69420.27012          20                     0   52           1
 -4  ERROR       1    1
 -5  STR(%)      1    1    0    0
 -1         1 7.61394E-15
 -1         2 7.61394E-15
 -1         3 7.61394E-15
 -1         4 7.61394E-15
 -1         5 7.61394E-15
 -1         6 7.61394E-15
 -1         7 7.61394E-15
 -1         8 7.61394E-15
 -1         9 7.61394E-15
 -1        10 7.61394E-15
 -1        11 7.61394E-15
 -1        12 7.61394E-15
 -1        13 7.61394E-15
 -1        14 7.61394E-15
 -1        15 7.61394E-15
 -1        16 7.61394E-15
 -1        17 7.61394E-15
 -1        18 7.61394E-15
 -1        19 7.61394E-15
 -1        20 7.61394E-15
 -3
    1PSTEP                       261          53           1          
  100CL  153 71651.58322          20                     0   53           1
 -4  DISP        4    1
 -5  D1          1    2    1    0
 -5  D2          1    2    2    0
 -5  D3          1    2    3    0
 -5  ALL         1    2    0    0    1ALL
 -1         1 0.00000E+00 0.00000E+00 0.00000E+00
 -1         2 0.00000E+00 0.00000E+00 0.00000E+00
 -1         3 0.00000E+00 0.00000E+00 2.00000E-03
 -1         4 0.00000E+00 0.00000E+00 2.00000E-03
 -1         5 0.00000E+00 0.00000E+00 0.00000E+00
 -1         6 0.00000E+00 0.00000E+00 0.00000E+00
 -1         7 0.00000E+00 0.00000E+00 2.00000E-03
 -1         8 0.00000E+00 0.00000E+00 2.00000E-03
 -1         9 0.00000E+00 0.00000E+00 0.00000E+00
 -1        10 0.00000E+00 0.00000E+00 1.00000E-03
 -1        11 0.00000E+00 0.00000E+00 2.00000E-03
 -1        12 0.00000E+00 0.00000E+00 1.00000E-03
 -1        13 0.00000E+00 0.00000E+00 0.00000E+00
 -1        14 0.00000E+00 0.00000E+00 0.00000E+00
 -1        15 0.00000E+00 0.00000E+00 2.00000E-03
 -1        16 0.00000E+00 0.00000E+00 2.00000E-03
 -1        17 0.00000E+00 0.00000E+00 0.00000E+00
 -1        18 0.00000E+00 0.00000E+00 1.00000E-03
 -1        19 0.00000E+00 0.00000E+00 2.00000E-03
 -1        20 0.00000E+00 0.00000E+00 1.00000E-03
 -3
    1PSTEP                       262          53           1          
  100CL  153 71651.58322          20                     0   53           1
 -4  STRESS      6    1
 -5  SXX         1    4    1    1
 -5  SYY         1    4    2    2
 -5  SZZ         1    4    3    3
 -5  SXY         1    4    1    2
 -5  SYZ         1    4    2    3
 -5  SZX         1    4    3    1
 -1         1 1.66638E+02 1.66638E+02 2.66701E+02 0.00000E+00 2.06411E-14 3.59773E-14
 -1         2 1.66638E+02 1.66638E+02 2.66701E+02 0.00000E+00-3.24636E-14-4.04615E-14
 -1         3 1.66638E+02 1.66638E+02 2.66701E+02 0.00000E+00-5.04906E-15-5.99652E-14
 -1         4 1.66638E+02 1.66638E+02 2.66701E+02 0.00000E+00-1.15509E-14 8.81258E-14
 -1         5 1.66638E+02 1.66638E+02 2.66701E+02 0.00000E+00 1.48178E-14-1.26697E-14
 -1         6 1.66638E+02 1.66638E+02 2.66701E+02 0.00000E+00-1.07000E-14 4.33695E-16
 -1         7 1.66638E+02 1.66638E+02 2.66701E+02 0.00000E+00 9.66788E-14 7.07015E-14
 -1         8 1.66638E+02 1.66638E+02 2.66701E+02 0.00000E+00-1.46845E-16-1.88379E-14
 -1         9 1.66653E+02 1.66653E+02 2.66725E+02 0.00000E+00-2.09538E-14-1.02365E-14
 -1        10 1.66653E+02 1.66653E+02 2.66725E+02 0.00000E+00 2.20349E-14 1.92752E-14
 -1        11 1.66653E+02 1.66653E+02 2.66725E+02 0.00000E+00 1.27383E-14 1.11957E-14
 -1        12 1.66653E+02 1.66653E+02 2.66725E+02 0.00000E+00 1.21118E-14 8.59497E-15
 -1        13 1.66653E+02 1.66653E+02 2.66725E+02 0.00000E+00-8.61096E-15-1.26779E-15
 -1        14 1.66653E+02 1.66653E+02 2.66725E+02 0.00000E+00 2.05216E-14 4.47363E-15
 -1        15 1.66653E+02 1.66653E+02 2.66725E+02 0.00000E+00-5.82172E-14 1.24718E-14
 -1        16 1.66653E+02 1.66653E+02 2.66725E+02 0.00000E+00 2.22725E-14 2.09135E-14
 -1        17 1.66653E+02 1.66653E+02 2.66725E+02 0.00000E+00-2.43521E-15 1.13830E-14
 -1        18 1.66653E+02 1.66653E+02 2.66725E+02 0.00000E+00 3.04949E-14-3.92842E-14
 -1        19 1.66653E+02 1.66653E+02 2.66725E+02 0.00000E+00 2.61716E-14-5.60933E-15
 -1        20 1.66653E+02 1.66653E+02 2.66725E+02 0.00000E+00 1.15303E-14 2.23629E-14
 -3
    1PSTEP                       263          53           1          
  100CL  153 71651.58322          20                     0   53           1
 -4  TOSTRAIN    6    1
 -5  EXX         1    4    1    1
 -5  EYY         1    4    2    2
 -5  EZZ         1    4    3    3
 -5  EXY         1    4    1    2
 -5  EYZ         1    4    2    3
 -5  EZX         1    4    3    1
 -1         1 0.00000E+00 0.00000E+00 1.99992E-03 0.00000E+00 4.12546E-19 7.19066E-19
 -1         2 0.00000E+00 0.00000E+00 1.99992E-03 0.00000E+00-6.48839E-19-8.08690E-19
 -1         3 0.00000E+00 0.00000E+00 1.99992E-03 0.00000E+00-1.00914E-19-1.19850E-18
 -1         4 0.00000E+00 0.00000E+00 1.99992E-03 0.00000E+00-2.30863E-19 1.76134E-18
 -1         5 0.00000E+00 0.00000E+00 1.99992E-03 0.00000E+00 2.96159E-19-2.53224E-19
 -1         6 0.00000E+00 0.00000E+00 1.99992E-03 0.00000E+00-2.13856E-19 8.66809E-21
 -1         7 0.00000E+00 0.00000E+00 1.99992E-03 0.00000E+00 1.93228E-18 1.41309E-18
 -1         8 0.00000E+00 0.00000E+00 1.99992E-03 0.00000E+00-2.93494E-21-3.76507E-19
 -1         9 0.00000E+00 0.00000E+00 2.00010E-03 0.00000E+00-4.18795E-19-2.04593E-19
 -1        10 0.00000E+00 0.00000E+00 2.00010E-03 0.00000E+00 4.40404E-19 3.85247E-19
 -1        11 0.00000E+00 0.00000E+00 2.00010E-03 0.00000E+00 2.54597E-19 2.23763E-19
 -1        12 0.00000E+00 0.00000E+00 2.00010E-03 0.00000E+00 2.42075E-19 1.71784E-19
 -1        13 0.00000E+00 0.00000E+00 2.00010E-03 0.00000E+00-1.72104E-19-2.53389E-20
 -1        14 0.00000E+00 0.00000E+00 2.00010E-03 0.00000E+00 4.10158E-19 8.94127E-20
 -1        15 0.00000E+00 0.00000E+00 2.00010E-03 0.00000E+00-1.16356E-18 2.49269E-19
 -1        16 0.00000E+00 0.00000E+00 2.00010E-03 0.00000E+00 4.45153E-19 4.17991E-19
 -1        17 0.00000E+00 0.00000E+00 2.00010E-03 0.00000E+00-4.86716E-20 2.27507E-19
 -1        18 0.00000E+00 0.00000E+00 2.00010E-03 0.00000E+00 6.09490E-19-7.85158E-19
 -1        19 0.00000E+00 0.00000E+00 2.00010E-03 0.00000E+00 5.23083E-19-1.12112E-19
 -1        20 0.00000E+00 0.00000E+00 2.00010E-03 0.00000E+00 2.30452E-19 4.46960E-19
 -3
    1PSTEP                       264          53           1          
  100CL  153 71651.58322          20                     0   53           1
 -4  FORC        4    1
 -5  F1          1    2    1    0
 -5  F2          1    2    2    0
 -5  F3          1    2    3    0
 -5  ALL         1    2    0    0    1ALL
 -1         1-1.38870E+01-1.38870E+01 2.22259E+01
 -1         2-1.38870E+01 1.38870E+01 2.22259E+01
 -1         3-1.38870E+01 1.38870E+01-2.22259E+01
 -1         4-1.38870E+01-1.38870E+01-2.22259E+01
 -1         5 1.38870E+01-1.38870E+01 2.22259E+01
 -1         6 1.38870E+01 1.38870E+01 2.22259E+01
 -1         7 1.38870E+01 1.38870E+01-2.22259E+01
 -1         8 1.38870E+01-1.38870E+01-2.22259E+01
 -1         9 5.55481E+01-8.58279E-15-8.89038E+01
 -1        10 5.55481E+01-5.55481E+01 5.55112E-15
 -1        11 5.55481E+01 3.58678E-15 8.89038E+01
 -1        12 5.55481E+01 5.55481E+01 1.75138E-14
 -1        13-7.79515E-15 5.55481E+01-8.89038E+01
 -1        14 1.55795E-14-5.55481E+01-8.89038E+01
 -1        15-1.59066E-15-5.55481E+01 8.89038E+01
 -1        16-2.19686E-15 5.55481E+01 8.89038E+01
 -1        17-5.55481E+01-4.90274E-16-8.89038E+01
 -1        18-5.55481E+01-5.55481E+01-3.55271E-15
 -1        19-5.55481E+01 2.04459E-15 8.89038E+01
 -1        20-5.55481E+01 5.55481E+01 7.54952E-15
 -3
    1PSTEP                       265          53           1          
  100CL  153 71651.58322          20                     0   53           1
 -4  ERROR       1    1
 -5  STR(%)      1    1    0    0
 -1         1 2.94339E-14
 -1         2 2.94339E-14
 -1         3 2.94339E-14
 -1         4 2.94339E-14
 -1         5 2.94339E-14
 -1         6 2.94339E-14
 -1         7 2.94339E-14
 -1         8 2.94339E-14
 -1         9 2.94339E-14
 -1        10 2.94339E-14
 -1        11 2.94339E-14
 -1        12 2.94339E-14
 -1        13 2.94339E-14
 -1        14 2.94339E-14
 -1        15 2.94339E-14
 -1        16 2.94339E-14
 -1        17 2.94339E-14
 -1        18 2.94339E-14
 -1        19 2.94339E-14
 -1        20 2.94339E-14
 -3
    1PSTEP                       266          54           1          
  100CL  154 73243.63728          20                     0   54           1
 -4  DISP        4    1
 -5  D1          1    2    1    0
 -5  D2          1    2    2    0
 -5  D3          1    2    3    0
 -5  ALL         1    2    0    0    1ALL
 -1         1 0.00000E+00 0.00000E+00 0.00000E+00
 -1         2 0.00000E+00 0.00000E+00 0.00000E+00
 -1         3 0.00000E+00 0.00000E+00 2.00000E-03
 -1         4 0.00000E+00 0.00000E+00 2.00000E-03
 -1         5 0.00000E+00 0.00000E+00 0.00000E+00
 -1         6 0.00000E+00 0.00000E+00 0.00000E+00
 -1         7 0.00000E+00 0.00000E+00 2.00000E-03
 -1         8 0.00000E+00 0.00000E+00 2.00000E-03
 -1         9 0.00000E+00 0.00000E+00 0.00000E+00
 -1        10 0.00000E+00 0.00000E+00 1.00000E-03
 -1        11 0.00000E+00 0.00000E+00 2.00000E-03
 -1        12 0.00000E+00 0.00000E+00 1.00000E-03
 -1        13 0.00000E+00 0.00000E+00 0.00000E+00
 -1        14 0.00000E+00 0.00000E+00 0.00000E+00
 -1        15 0.00000E+00 0.00000E+00 2.00000E-03
 -1        16 0.00000E+00 0.00000E+00 2.00000E-03
 -1        17 0.00000E+00 0.00000E+00 0.00000E+00
 -1        18 0.00000E+00 0.00000E+00 1.00000E-03
 -1        19 0.00000E+00 0.00000E+00 2.00000E-03
 -1        20 0.00000E+00 0.00000E+00 1.00000E-03
 -3
    1PSTEP                       267          54           1          
  100CL  154 73243.63728          20                     0   54           1
 -4  STRESS      6    1
 -5  SXX         1    4    1    1
 -5  SYY         1    4    2    2
 -5  SZZ         1    4    3    3
 -5  SXY         1    4    1    2
 -5  SYZ         1    4    2    3
 -5  SZX         1    4    3    1
 -1         1 1.66850E+02 1.66850E+02 2.66276E+02 0.00000E+00 2.05099E-14 3.57486E-14
 -1         2 1.66850E+02 1.66850E+02 2.66276E+02 0.00000E+00-3.22572E-14-4.02043E-14
 -1         3 1.66850E+02 1.66850E+02 2.66276E+02 0.00000E+00-5.01695E-15-5.95839E-14
 -1         4 1.66850E+02 1.66850E+02 2.66276E+02 0.00000E+00-1.14774E-14 8.75654E-14
 -1         5 1.66850E+02 1.66850E+02 2.66276E+02 0.00000E+00 1.47236E-14-1.25891E-14
 -1         6 1.66850E+02 1.66850E+02 2.66276E+02 0.00000E+00-1.06319E-14 4.30937E-16
 -1         7 1.66850E+02 1.66850E+02 2.66276E+02 0.00000E+00 9.60640E-14 7.02520E-14
 -1         8 1.66850E+02 1.66850E+02 2.66276E+02 0.00000E+00-1.45911E-16-1.87181E-14
 -1         9 1.66865E+02 1.66865E+02 2.66300E+02 0.00000E+00-2.08205E-14-1.01714E-14
 -1        10 1.66865E+02 1.66865E+02 2.66300E+02 0.00000E+00 2.18948E-14 1.91527E-14
 -1        11 1.66865E+02 1.66865E+02 2.66300E+02 0.00000E+00 1.26573E-14 1.11245E-14
 -1        12 1.66865E+02 1.66865E+02 2.66300E+02 0.00000E+00 1.20348E-14 8.54032E-15
 -1        13 1.66865E+02 1.66865E+02 2.66300E+02 0.00000E+00-8.55621E-15-1.25973E-15
 -1        14 1.66865E+02 1.66865E+02 2.66300E+02 0.00000E+00 2.03912E-14 4.44518E-15
 -1        15 1.66865E+02 1.66865E+02 2.66300E+02 0.00000E+00-5.78470E-14 1.23925E-14
 -1        16 1.66865E+02 1.66865E+02 2.66300E+02 0.00000E+00 2.21309E-14 2.07805E-14
 -1        17 1.66865E+02 1.66865E+02 2.66300E+02 0.00000E+00-2.41972E-15 1.13106E-14
 -1        18 1.66865E+02 1.66865E+02 2.66300E+02 0.00000E+00 3.03010E-14-3.90344E-14
 -1        19 1.66865E+02 1.66865E+02 2.66300E+02 0.00000E+00 2.60052E-14-5.57367E-15
 -1        20 1.66865E+02 1.66865E+02 2.66300E+02 0.00000E+00 1.14570E-14 2.22207E-14
 -3
    1PSTEP                       268          54           1          
  100CL  154 73243.63728          20                     0   54           1
 -4  TOSTRAIN    6    1
 -5  EXX         1    4    1    1
 -5  EYY         1    4    2    2
 -5  EZZ         1    4    3    3
 -5  EXY         1    4    1    2
 -5  EYZ         1    4    2    3
 -5  EZX         1    4    3    1
 -1         1 0.00000E+00 0.00000E+00 1.99992E-03 0.00000E+00 4.12546E-19 7.19066E-19
 -1         2 0.00000E+00 0.00000E+00 1.99992E-03 0.00000E+00-6.48839E-19-8.08690E-19
 -1         3 0.00000E+00 0.00000E+00 1.99992E-03 0.00000E+00-1.00914E-19-1.19850E-18
 -1         4 0.00000E+00 0.00000E+00 1.99992E-03 0.00000E+00-2.30863E-19 1.76134E-18
 -1         5 0.00000E+00 0.00000E+00 1.99992E-03 0.00000E+00 2.96159E-19-2.53224E-19
 -1         6 0.00000E+00 0.00000E+00 1.99992E-03 0.00000E+00-2.13856E-19 8.66809E-21
 -1         7 0.00000E+00 0.00000E+00 1.99992E-03 0.00000E+00 1.93228E-18 1.41309E-18
 -1         8 0.00000E+00 0.00000E+00 1.99992E-03 0.00000E+00-2.93494E-21-3.76507E-19
 -1         9 0.00000E+00 0.00000E+00 2.00010E-03 0.00000E+00-4.18795E-19-2.04593E-19
 -1        10 0.00000E+00 0.00000E+00 2.00010E-03 0.00000E+00 4.40404E-19 3.85247E-19
 -1        11 0.00000E+00 0.00000E+00 2.00010E-03 0.00000E+00 2.54597E-19 2.23763E-19
 -1        12 0.00000E+00 0.00000E+00 2.00010E-03 0.00000E+00 2.42075E-19 1.71784E-19
 -1        13 0.00000E+00 0.00000E+00 2.00010E-03 0.00000E+00-1.72104E-19-2.53389E-20
 -1        14 0.00000E+00 0.00000E+00 2.00010E-03 0.00000E+00 4.10158E-19 8.94127E-20
 -1        15 0.00000E+00 0.00000E+00 2.00010E-03 0.00000E+00-1.16356E-18 2.49269E-19
 -1        16 0.00000E+00 0.00000E+00 2.00010E-03 0.00000E+00 4.45153E-19 4.17991E-19
 -1        17 0.00000E+00 0.00000E+00 2.00010E-03 0.00000E+00-4.86716E-20 2.27507E-19
 -1        18 0.00000E+00 0.00000E+00 2.00010E-03 0.00000E+00 6.09490E-19-7.85158E-19
 -1        19 0.00000E+00 0.00000E+00 2.00010E-03 0.00000E+00 5.23083E-19-1.12112E-19
 -1        20 0.00000E+00 0.00000E+00 2.00010E-03 0.00000E+00 2.30452E-19 4.46960E-19
 -3
    1PSTEP                       269          54           1          
  100CL  154 73243.63728          20                     0   54           1
 -4  FORC        4    1
 -5  F1          1    2    1    0
 -5  F2          1    2    2    0
 -5  F3          1    2    3    0
 -5  ALL         1    2    0    0    1ALL
 -1         1-1.39047E+01-1.39047E+01 2.21906E+01
 -1         2-1.39047E+01 1.39047E+01 2.21906E+01
 -1         3-1.39047E+01 1.39047E+01-2.21906E+01
 -1         4-1.39047E+01-1.39047E+01-2.21906E+01
 -1         5 1.39047E+01-1.39047E+01 2.21906E+01
 -1         6 1.39047E+01 1.39047E+01 2.21906E+01
 -1         7 1.39047E+01 1.39047E+01-2.21906E+01
 -1         8 1.39047E+01-1.39047E+01-2.21906E+01
 -1         9 5.56188E+01-4.28046E-15-8.87624E+01
 -1        10 5.56188E+01-5.56188E+01 9.10383E-15
 -1        11 5.56188E+01 3.14248E-15 8.87624E+01
 -1        12 5.56188E+01 5.56188E+01 1.60150E-14
 -1        13 2.89090E-15 5.56188E+01-8.87624E+01
 -1        14 1.91334E-14-5.56188E+01-8.87624E+01
 -1        15 1.84516E-16-5.56188E+01 8.87624E+01
 -1        16-5.30563E-15 5.56188E+01 8.87624E+01
 -1        17-5.56188E+01-4.88568E-16-8.87624E+01
 -1        18-5.56188E+01-5.56188E+01-3.55271E-15
 -1        19-5.56188E+01 2.04288E-15 8.87624E+01
 -1        20-5.56188E+01 5.56188E+01-3.77476E-15
 -3
    1PSTEP                       270          54           1          
  100CL  154 73243.63728          20                     0   54           1
 -4  ERROR       1    1
 -5  STR(%)      1    1    0    0
 -1         1 1.31026E-14
 -1         2 1.31026E-14
 -1         3 1.31026E-14
 -1         4 1.31026E-14
 -1         5 1.31026E-14
 -1         6 1.31026E-14
 -1         7 1.31026E-14
 -1         8 1.31026E-14
 -1         9 1.31026E-14
 -1        10 1.31026E-14
 -1        11 1.31026E-14
 -1        12 1.31026E-14
 -1        13 1.31026E-14
 -1        14 1.31026E-14
 -1        15 1.31026E-14
 -1        16 1.31026E-14
 -1        17 1.31026E-14
 -1        18 1.31026E-14
 -1        19 1.31026E-14
 -1        20 1.31026E-14
 -3
    1PSTEP                       271          55           1          
  100CL  155 74835.69134          20                     0   55           1
 -4  DISP        4    1
 -5  D1          1    2    1    0
 -5  D2          1    2    2    0
 -5  D3          1    2    3    0
 -5  ALL         1    2    0    0    1ALL
 -1         1 0.00000E+00 0.00000E+00 0.00000E+00
 -1         2 0.00000E+00 0.00000E+00 0.00000E+00
 -1         3 0.00000E+00 0.00000E+00 2.00000E-03
 -1         4 0.00000E+00 0.00000E+00 2.00000E-03
 -1         5 0.00000E+00 0.00000E+00 0.00000E+00
 -1         6 0.00000E+00 0.00000E+00 0.00000E+00
 -1         7 0.00000E+00 0.00000E+00 2.00000E-03
 -1         8 0.00000E+00 0.00000E+00 2.00000E-03
 -1         9 0.00000E+00 0.00000E+00 0.00000E+00
 -1        10 0.00000E+00 0.00000E+00 1.00000E-03
 -1        11 0.00000E+00 0.00000E+00 2.00000E-03
 -1        12 0.00000E+00 0.00000E+00 1.00000E-03
 -1        13 0.00000E+00 0.00000E+00 0.00000E+00
 -1        14 0.00000E+00 0.00000E+00 0.00000E+00
 -1        15 0.00000E+00 0.00000E+00 2.00000E-03
 -1        16 0.00000E+00 0.00000E+00 2.00000E-03
 -1        17 0.00000E+00 0.00000E+00 0.00000E+00
 -1        18 0.00000E+00 0.00000E+00 1.00000E-03
 -1        19 0.00000E+00 0.00000E+00 2.00000E-03
 -1        20 0.00000E+00 0.00000E+00 1.00000E-03
 -3
    1PSTEP                       272          55           1          
  100CL  155 74835.69134          20                     0   55           1
 -4  STRESS      6    1
 -5  SXX         1    4    1    1
 -5  SYY         1    4    2    2
 -5  SZZ         1    4    3    3
 -5  SXY         1    4    1    2
 -5  SYZ         1    4    2    3
 -5  SZX         1    4    3    1
 -1         1 1.67061E+02 1.67061E+02 2.65855E+02 0.00000E+00 2.03794E-14 3.55213E-14
 -1         2 1.67061E+02 1.67061E+02 2.65855E+02 0.00000E+00-3.20521E-14-3.99486E-14
 -1         3 1.67061E+02 1.67061E+02 2.65855E+02 0.00000E+00-4.98506E-15-5.92050E-14
 -1         4 1.67061E+02 1.67061E+02 2.65855E+02 0.00000E+00-1.14044E-14 8.70086E-14
 -1         5 1.67061E+02 1.67061E+02 2.65855E+02 0.00000E+00 1.46300E-14-1.25091E-14
 -1         6 1.67061E+02 1.67061E+02 2.65855E+02 0.00000E+00-1.05643E-14 4.28197E-16
 -1         7 1.67061E+02 1.67061E+02 2.65855E+02 0.00000E+00 9.54532E-14 6.98053E-14
 -1         8 1.67061E+02 1.67061E+02 2.65855E+02 0.00000E+00-1.44983E-16-1.85991E-14
 -1         9 1.67076E+02 1.67076E+02 2.65879E+02 0.00000E+00-2.06881E-14-1.01067E-14
 -1        10 1.67076E+02 1.67076E+02 2.65879E+02 0.00000E+00 2.17556E-14 1.90309E-14
 -1        11 1.67076E+02 1.67076E+02 2.65879E+02 0.00000E+00 1.25769E-14 1.10537E-14
 -1        12 1.67076E+02 1.67076E+02 2.65879E+02 0.00000E+00 1.19583E-14 8.48602E-15
 -1        13 1.67076E+02 1.67076E+02 2.65879E+02 0.00000E+00-8.50181E-15-1.25172E-15
 -1        14 1.67076E+02 1.67076E+02 2.65879E+02 0.00000E+00 2.02615E-14 4.41692E-15
 -1        15 1.67076E+02 1.67076E+02 2.65879E+02 0.00000E+00-5.74792E-14 1.23137E-14
 -1        16 1.67076E+02 1.67076E+02 2.65879E+02 0.00000E+00 2.19902E-14 2.06484E-14
 -1        17 1.67076E+02 1.67076E+02 2.65879E+02 0.00000E+00-2.40434E-15 1.12387E-14
 -1        18 1.67076E+02 1.67076E+02 2.65879E+02 0.00000E+00 3.01083E-14-3.87862E-14
 -1        19 1.67076E+02 1.67076E+02 2.65879E+02 0.00000E+00 2.58399E-14-5.53823E-15
 -1        20 1.67076E+02 1.67076E+02 2.65879E+02 0.00000E+00 1.13841E-14 2.20795E-14
 -3
    1PSTEP                       273          55           1          
  100CL  155 74835.69134          20                     0   55           1
 -4  TOSTRAIN    6    1
 -5  EXX         1    4    1    1
 -5  EYY         1    4    2    2
 -5  EZZ         1    4    3    3
 -5  EXY         1    4    1    2
 -5  EYZ         1    4    2    3
 -5  EZX         1    4    3    1
 -1         1 0.00000E+00 0.00000E+00 1.99992E-03 0.00000E+00 4.12546E-19 7.19066E-19
 -1         2 0.00000E+00 0.00000E+00 1.99992E-03 0.00000E+00-6.48839E-19-8.08690E-19
 -1         3 0.00000E+00 0.00000E+00 1.99992E-03 0.00000E+00-1.00914E-19-1.19850E-18
 -1         4 0.00000E+00 0.00000E+00 1.99992E-03 0.00000E+00-2.30863E-19 1.76134E-18
 -1         5 0.00000E+00 0.00000E+00 1.99992E-03 0.00000E+00 2.96159E-19-2.53224E-19
 -1         6 0.00000E+00 0.00000E+00 1.99992E-03 0.00000E+00-2.13856E-19 8.66809E-21
 -1         7 0.00000E+00 0.00000E+00 1.99992E-03 0.00000E+00 1.93228E-18 1.41309E-18
 -1         8 0.00000E+00 0.00000E+00 1.99992E-03 0.00000E+00-2.93494E-21-3.76507E-19
 -1         9 0.00000E+00 0.00000E+00 2.00010E-03 0.00000E+00-4.18795E-19-2.04593E-19
 -1        10 0.00000E+00 0.00000E+00 2.00010E-03 0.00000E+00 4.40404E-19 3.85247E-19
 -1        11 0.00000E+00 0.00000E+00 2.00010E-03 0.00000E+00 2.54597E-19 2.23763E-19
 -1        12 0.00000E+00 0.00000E+00 2.00010E-03 0.00000E+00 2.42075E-19 1.71784E-19
 -1        13 0.00000E+00 0.00000E+00 2.00010E-03 0.00000E+00-1.72104E-19-2.53389E-20
 -1        14 0.00000E+00 0.00000E+00 2.00010E-03 0.00000E+00 4.10158E-19 8.94127E-20
 -1        15 0.00000E+00 0.00000E+00 2.00010E-03 0.00000E+00-1.16356E-18 2.49269E-19
 -1        16 0.00000E+00 0.00000E+00 2.00010E-03 0.00000E+00 4.45153E-19 4.17991E-19
 -1        17 0.00000E+00 0.00000E+00 2.00010E-03 0.00000E+00-4.86716E-20 2.27507E-19
 -1        18 0.00000E+00 0.00000E+00 2.00010E-03 0.00000E+00 6.09490E-19-7.85158E-19
 -1        19 0.00000E+00 0.00000E+00 2.00010E-03 0.00000E+00 5.23083E-19-1.12112E-19
 -1        20 0.00000E+00 0.00000E+00 2.00010E-03 0.00000E+00 2.30452E-19 4.46960E-19
 -3
    1PSTEP                       274          55           1          
  100CL  155 74835.69134          20                     0   55           1
 -4  FORC        4    1
 -5  F1          1    2    1    0
 -5  F2          1    2    2    0
 -5  F3          1    2    3    0
 -5  ALL         1    2    0    0    1ALL
 -1         1-1.39223E+01-1.39223E+01 2.21555E+01
 -1         2-1.39223E+01 1.39223E+01 2.21555E+01
 -1         3-1.39223E+01 1.39223E+01-2.21555E+01
 -1         4-1.39223E+01-1.39223E+01-2.21555E+01
 -1         5 1.39223E+01-1.39223E+01 2.21555E+01
 -1         6 1.39223E+01 1.39223E+01 2.21555E+01
 -1         7 1.39223E+01 1.39223E+01-2.21555E+01
 -1         8 1.39223E+01-1.39223E+01-2.21555E+01
 -1         9 5.56891E+01-6.66722E-15-8.86219E+01
 -1        10 5.56891E+01-5.56891E+01 6.66134E-15
 -1        11 5.56891E+01 6.02884E-15 8.86219E+01
 -1        12 5.56891E+01 5.56891E+01 1.93179E-14
 -1        13-1.16806E-14 5.56891E+01-8.86219E+01
 -1        14 9.58662E-15-5.56891E+01-8.86219E+01
 -1        15 1.83343E-16-5.56891E+01 8.86219E+01
 -1        16 1.57760E-15 5.56891E+01 8.86219E+01
 -1        17-5.56891E+01-4.86874E-16-8.86219E+01
 -1        18-5.56891E+01-5.56891E+01-3.55271E-15
 -1        19-5.56891E+01 2.64829E-16 8.86219E+01
 -1        20-5.56891E+01 5.56891E+01-6.66134E-16
 -3
    1PSTEP                       275          55           1          
  100CL  155 74835.69134          20                     0   55           1
 -4  ERROR       1    1
 -5  STR(%)      1    1    0    0
 -1         1 1.85914E-14
 -1         2 1.85914E-14
 -1         3 1.85914E-14
 -1         4 1.85914E-14
 -1         5 1.85914E-14
 -1         6 1.85914E-14
 -1         7 1.85914E-14
 -1         8 1.85914E-14
 -1         9 1.85914E-14
 -1        10 1.85914E-14
 -1        11 1.85914E-14
 -1        12 1.85914E-14
 -1        13 1.85914E-14
 -1        14 1.85914E-14
 -1        15 1.85914E-14
 -1        16 1.85914E-14
 -1        17 1.85914E-14
 -1        18 1.85914E-14
 -1        19 1.85914E-14
 -1        20 1.85914E-14
 -3
    1PSTEP                       276          56           1          
  100CL  156 77223.77244          20                     0   56           1
 -4  DISP        4    1
 -5  D1          1    2    1    0
 -5  D2          1    2    2    0
 -5  D3          1    2    3    0
 -5  ALL         1    2    0    0    1ALL
 -1         1 0.00000E+00 0.00000E+00 0.00000E+00
 -1         2 0.00000E+00 0.00000E+00 0.00000E+00
 -1         3 0.00000E+00 0.00000E+00 2.00000E-03
 -1         4 0.00000E+00 0.00000E+00 2.00000E-03
 -1         5 0.00000E+00 0.00000E+00 0.00000E+00
 -1         6 0.00000E+00 0.00000E+00 0.00000E+00
 -1         7 0.00000E+00 0.00000E+00 2.00000E-03
 -1         8 0.00000E+00 0.00000E+00 2.00000E-03
 -1         9 0.00000E+00 0.00000E+00 0.00000E+00
 -1        10 0.00000E+00 0.00000E+00 1.00000E-03
 -1        11 0.00000E+00 0.00000E+00 2.00000E-03
 -1        12 0.00000E+00 0.00000E+00 1.00000E-03
 -1        13 0.00000E+00 0.00000E+00 0.00000E+00
 -1        14 0.00000E+00 0.00000E+00 0.00000E+00
 -1        15 0.00000E+00 0.00000E+00 2.00000E-03
 -1        16 0.00000E+00 0.00000E+00 2.00000E-03
 -1        17 0.00000E+00 0.00000E+00 0.00000E+00
 -1        18 0.00000E+00 0.00000E+00 1.00000E-03
 -1        19 0.00000E+00 0.00000E+00 2.00000E-03
 -1        20 0.00000E+00 0.00000E+00 1.00000E-03
 -3
    1PSTEP                       277          56           1          
  100CL  156 77223.77244          20                     0   56           1
 -4  STRESS      6    1
 -5  SXX         1    4    1    1
 -5  SYY         1    4    2    2
 -5  SZZ         1    4    3    3
 -5  SXY         1    4    1    2
 -5  SYZ         1    4    2    3
 -5  SZX         1    4    3    1
 -1         1 1.67374E+02 1.67374E+02 2.65229E+02 0.00000E+00 2.01857E-14 3.51836E-14
 -1         2 1.67374E+02 1.67374E+02 2.65229E+02 0.00000E+00-3.17474E-14-3.95688E-14
 -1         3 1.67374E+02 1.67374E+02 2.65229E+02 0.00000E+00-4.93766E-15-5.86422E-14
 -1         4 1.67374E+02 1.67374E+02 2.65229E+02 0.00000E+00-1.12960E-14 8.61814E-14
 -1         5 1.67374E+02 1.67374E+02 2.65229E+02 0.00000E+00 1.44909E-14-1.23901E-14
 -1         6 1.67374E+02 1.67374E+02 2.65229E+02 0.00000E+00-1.04639E-14 4.24126E-16
 -1         7 1.67374E+02 1.67374E+02 2.65229E+02 0.00000E+00 9.45457E-14 6.91416E-14
 -1         8 1.67374E+02 1.67374E+02 2.65229E+02 0.00000E+00-1.43605E-16-1.84223E-14
 -1         9 1.67389E+02 1.67389E+02 2.65253E+02 0.00000E+00-2.04915E-14-1.00106E-14
 -1        10 1.67389E+02 1.67389E+02 2.65253E+02 0.00000E+00 2.15488E-14 1.88500E-14
 -1        11 1.67389E+02 1.67389E+02 2.65253E+02 0.00000E+00 1.24573E-14 1.09486E-14
 -1        12 1.67389E+02 1.67389E+02 2.65253E+02 0.00000E+00 1.18446E-14 8.40534E-15
 -1        13 1.67389E+02 1.67389E+02 2.65253E+02 0.00000E+00-8.42098E-15-1.23982E-15
 -1        14 1.67389E+02 1.67389E+02 2.65253E+02 0.00000E+00 2.00689E-14 4.37492E-15
 -1        15 1.67389E+02 1.67389E+02 2.65253E+02 0.00000E+00-5.69327E-14 1.21966E-14
 -1        16 1.67389E+02 1.67389E+02 2.65253E+02 0.00000E+00 2.17811E-14 2.04521E-14
 -1        17 1.67389E+02 1.67389E+02 2.65253E+02 0.00000E+00-2.38148E-15 1.11318E-14
 -1        18 1.67389E+02 1.67389E+02 2.65253E+02 0.00000E+00 2.98221E-14-3.84174E-14
 -1        19 1.67389E+02 1.67389E+02 2.65253E+02 0.00000E+00 2.55942E-14-5.48557E-15
 -1        20 1.67389E+02 1.67389E+02 2.65253E+02 0.00000E+00 1.12759E-14 2.18695E-14
 -3
    1PSTEP                       278          56           1          
  100CL  156 77223.77244          20                     0   56           1
 -4  TOSTRAIN    6    1
 -5  EXX         1    4    1    1
 -5  EYY         1    4    2    2
 -5  EZZ         1    4    3    3
 -5  EXY         1    4    1    2
 -5  EYZ         1    4    2    3
 -5  EZX         1    4    3    1
 -1         1 0.00000E+00 0.00000E+00 1.99992E-03 0.00000E+00 4.12546E-19 7.19066E-19
 -1         2 0.00000E+00 0.00000E+00 1.99992E-03 0.00000E+00-6.48839E-19-8.08690E-19
 -1         3 0.00000E+00 0.00000E+00 1.99992E-03 0.00000E+00-1.00914E-19-1.19850E-18
 -1         4 0.00000E+00 0.00000E+00 1.99992E-03 0.00000E+00-2.30863E-19 1.76134E-18
 -1         5 0.00000E+00 0.00000E+00 1.99992E-03 0.00000E+00 2.96159E-19-2.53224E-19
 -1         6 0.00000E+00 0.00000E+00 1.99992E-03 0.00000E+00-2.13856E-19 8.66809E-21
 -1         7 0.00000E+00 0.00000E+00 1.99992E-03 0.00000E+00 1.93228E-18 1.41309E-18
 -1         8 0.00000E+00 0.00000E+00 1.99992E-03 0.00000E+00-2.93494E-21-3.76507E-19
 -1         9 0.00000E+00 0.00000E+00 2.00010E-03 0.00000E+00-4.18795E-19-2.04593E-19
 -1        10 0.00000E+00 0.00000E+00 2.00010E-03 0.00000E+00 4.40404E-19 3.85247E-19
 -1        11 0.00000E+00 0.00000E+00 2.00010E-03 0.00000E+00 2.54597E-19 2.23763E-19
 -1        12 0.00000E+00 0.00000E+00 2.00010E-03 0.00000E+00 2.42075E-19 1.71784E-19
 -1        13 0.00000E+00 0.00000E+00 2.00010E-03 0.00000E+00-1.72104E-19-2.53389E-20
 -1        14 0.00000E+00 0.00000E+00 2.00010E-03 0.00000E+00 4.10158E-19 8.94127E-20
 -1        15 0.00000E+00 0.00000E+00 2.00010E-03 0.00000E+00-1.16356E-18 2.49269E-19
 -1        16 0.00000E+00 0.00000E+00 2.00010E-03 0.00000E+00 4.45153E-19 4.17991E-19
 -1        17 0.00000E+00 0.00000E+00 2.00010E-03 0.00000E+00-4.86716E-20 2.27507E-19
 -1        18 0.00000E+00 0.00000E+00 2.00010E-03 0.00000E+00 6.09490E-19-7.85158E-19
 -1        19 0.00000E+00 0.00000E+00 2.00010E-03 0.00000E+00 5.23083E-19-1.12112E-19
 -1        20 0.00000E+00 0.00000E+00 2.00010E-03 0.00000E+00 2.30452E-19 4.46960E-19
 -3
    1PSTEP                       279          56           1          
  100CL  156 77223.77244          20                     0   56           1
 -4  FORC        4    1
 -5  F1          1    2    1    0
 -5  F2          1    2    2    0
 -5  F3          1    2    3    0
 -5  ALL         1    2    0    0    1ALL
 -1         1-1.39484E+01-1.39484E+01 2.21033E+01
 -1         2-1.39484E+01 1.39484E+01 2.21033E+01
 -1         3-1.39484E+01 1.39484E+01-2.21033E+01
 -1         4-1.39484E+01-1.39484E+01-2.21033E+01
 -1         5 1.39484E+01-1.39484E+01 2.21033E+01
 -1         6 1.39484E+01 1.39484E+01 2.21033E+01
 -1         7 1.39484E+01 1.39484E+01-2.21033E+01
 -1         8 1.39484E+01-1.39484E+01-2.21033E+01
 -1         9 5.57934E+01-5.83423E-15-8.84131E+01
 -1        10 5.57934E+01-5.57934E+01 9.32587E-15
 -1        11 5.57934E+01 6.02852E-15 8.84131E+01
 -1        12 5.57934E+01 5.57934E+01 1.27953E-14
 -1        13-8.04443E-15 5.57934E+01-8.84131E+01
 -1        14 1.06986E-14-5.57934E+01-8.84131E+01
 -1        15-1.59476E-15-5.57934E+01 8.84131E+01
 -1        16 1.57738E-15 5.57934E+01 8.84131E+01
 -1        17-5.57934E+01 1.06996E-15-8.84131E+01
 -1        18-5.57934E+01-5.57934E+01 3.55271E-15
 -1        19-5.57934E+01 2.03867E-15 8.84131E+01
 -1        20-5.57934E+01 5.57934E+01-1.11022E-15
 -3
    1PSTEP                       280          56           1          
  100CL  156 77223.77244          20                     0   56           1
 -4  ERROR       1    1
 -5  STR(%)      1    1    0    0
 -1         1 1.09619E-14
 -1         2 1.09619E-14
 -1         3 1.09619E-14
 -1         4 1.09619E-14
 -1         5 1.09619E-14
 -1         6 1.09619E-14
 -1         7 1.09619E-14
 -1         8 1.09619E-14
 -1         9 1.09619E-14
 -1        10 1.09619E-14
 -1        11 1.09619E-14
 -1        12 1.09619E-14
 -1        13 1.09619E-14
 -1        14 1.09619E-14
 -1        15 1.09619E-14
 -1        16 1.09619E-14
 -1        17 1.09619E-14
 -1        18 1.09619E-14
 -1        19 1.09619E-14
 -1        20 1.09619E-14
 -3
    1PSTEP                       281          57           1          
  100CL  157 78746.29362          20                     0   57           1
 -4  DISP        4    1
 -5  D1          1    2    1    0
 -5  D2          1    2    2    0
 -5  D3          1    2    3    0
 -5  ALL         1    2    0    0    1ALL
 -1         1 0.00000E+00 0.00000E+00 0.00000E+00
 -1         2 0.00000E+00 0.00000E+00 0.00000E+00
 -1         3 0.00000E+00 0.00000E+00 2.00000E-03
 -1         4 0.00000E+00 0.00000E+00 2.00000E-03
 -1         5 0.00000E+00 0.00000E+00 0.00000E+00
 -1         6 0.00000E+00 0.00000E+00 0.00000E+00
 -1         7 0.00000E+00 0.00000E+00 2.00000E-03
 -1         8 0.00000E+00 0.00000E+00 2.00000E-03
 -1         9 0.00000E+00 0.00000E+00 0.00000E+00
 -1        10 0.00000E+00 0.00000E+00 1.00000E-03
 -1        11 0.00000E+00 0.00000E+00 2.00000E-03
 -1        12 0.00000E+00 0.00000E+00 1.00000E-03
 -1        13 0.00000E+00 0.00000E+00 0.00000E+00
 -1        14 0.00000E+00 0.00000E+00 0.00000E+00
 -1        15 0.00000E+00 0.00000E+00 2.00000E-03
 -1        16 0.00000E+00 0.00000E+00 2.00000E-03
 -1        17 0.00000E+00 0.00000E+00 0.00000E+00
 -1        18 0.00000E+00 0.00000E+00 1.00000E-03
 -1        19 0.00000E+00 0.00000E+00 2.00000E-03
 -1        20 0.00000E+00 0.00000E+00 1.00000E-03
 -3
    1PSTEP                       282          57           1          
  100CL  157 78746.29362          20                     0   57           1
 -4  STRESS      6    1
 -5  SXX         1    4    1    1
 -5  SYY         1    4    2    2
 -5  SZZ         1    4    3    3
 -5  SXY         1    4    1    2
 -5  SYZ         1    4    2    3
 -5  SZX         1    4    3    1
 -1         1 1.67572E+02 1.67572E+02 2.64832E+02 0.00000E+00 2.00629E-14 3.49696E-14
 -1         2 1.67572E+02 1.67572E+02 2.64832E+02 0.00000E+00-3.15543E-14-3.93281E-14
 -1         3 1.67572E+02 1.67572E+02 2.64832E+02 0.00000E+00-4.90763E-15-5.82855E-14
 -1         4 1.67572E+02 1.67572E+02 2.64832E+02 0.00000E+00-1.12273E-14 8.56572E-14
 -1         5 1.67572E+02 1.67572E+02 2.64832E+02 0.00000E+00 1.44028E-14-1.23148E-14
 -1         6 1.67572E+02 1.67572E+02 2.64832E+02 0.00000E+00-1.04002E-14 4.21546E-16
 -1         7 1.67572E+02 1.67572E+02 2.64832E+02 0.00000E+00 9.39706E-14 6.87211E-14
 -1         8 1.67572E+02 1.67572E+02 2.64832E+02 0.00000E+00-1.42732E-16-1.83103E-14
 -1         9 1.67587E+02 1.67587E+02 2.64856E+02 0.00000E+00-2.03668E-14-9.94975E-15
 -1        10 1.67587E+02 1.67587E+02 2.64856E+02 0.00000E+00 2.14177E-14 1.87353E-14
 -1        11 1.67587E+02 1.67587E+02 2.64856E+02 0.00000E+00 1.23815E-14 1.08820E-14
 -1        12 1.67587E+02 1.67587E+02 2.64856E+02 0.00000E+00 1.17726E-14 8.35421E-15
 -1        13 1.67587E+02 1.67587E+02 2.64856E+02 0.00000E+00-8.36976E-15-1.23228E-15
 -1        14 1.67587E+02 1.67587E+02 2.64856E+02 0.00000E+00 1.99468E-14 4.34831E-15
 -1        15 1.67587E+02 1.67587E+02 2.64856E+02 0.00000E+00-5.65864E-14 1.21224E-14
 -1        16 1.67587E+02 1.67587E+02 2.64856E+02 0.00000E+00 2.16487E-14 2.03277E-14
 -1        17 1.67587E+02 1.67587E+02 2.64856E+02 0.00000E+00-2.36699E-15 1.10641E-14
 -1        18 1.67587E+02 1.67587E+02 2.64856E+02 0.00000E+00 2.96407E-14-3.81838E-14
 -1        19 1.67587E+02 1.67587E+02 2.64856E+02 0.00000E+00 2.54385E-14-5.45221E-15
 -1        20 1.67587E+02 1.67587E+02 2.64856E+02 0.00000E+00 1.12073E-14 2.17365E-14
 -3
    1PSTEP                       283          57           1          
  100CL  157 78746.29362          20                     0   57           1
 -4  TOSTRAIN    6    1
 -5  EXX         1    4    1    1
 -5  EYY         1    4    2    2
 -5  EZZ         1    4    3    3
 -5  EXY         1    4    1    2
 -5  EYZ         1    4    2    3
 -5  EZX         1    4    3    1
 -1         1 0.00000E+00 0.00000E+00 1.99992E-03 0.00000E+00 4.12546E-19 7.19066E-19
 -1         2 0.00000E+00 0.00000E+00 1.99992E-03 0.00000E+00-6.48839E-19-8.08690E-19
 -1         3 0.00000E+00 0.00000E+00 1.99992E-03 0.00000E+00-1.00914E-19-1.19850E-18
 -1         4 0.00000E+00 0.00000E+00 1.99992E-03 0.00000E+00-2.30863E-19 1.76134E-18
 -1         5 0.00000E+00 0.00000E+00 1.99992E-03 0.00000E+00 2.96159E-19-2.53224E-19
 -1         6 0.00000E+00 0.00000E+00 1.99992E-03 0.00000E+00-2.13856E-19 8.66809E-21
 -1         7 0.00000E+00 0.00000E+00 1.99992E-03 0.00000E+00 1.93228E-18 1.41309E-18
 -1         8 0.00000E+00 0.00000E+00 1.99992E-03 0.00000E+00-2.93494E-21-3.76507E-19
 -1         9 0.00000E+00 0.00000E+00 2.00010E-03 0.00000E+00-4.18795E-19-2.04593E-19
 -1        10 0.00000E+00 0.00000E+00 2.00010E-03 0.00000E+00 4.40404E-19 3.85247E-19
 -1        11 0.00000E+00 0.00000E+00 2.00010E-03 0.00000E+00 2.54597E-19 2.23763E-19
 -1        12 0.00000E+00 0.00000E+00 2.00010E-03 0.00000E+00 2.42075E-19 1.71784E-19
 -1        13 0.00000E+00 0.00000E+00 2.00010E-03 0.00000E+00-1.72104E-19-2.53389E-20
 -1        14 0.00000E+00 0.00000E+00 2.00010E-03 0.00000E+00 4.10158E-19 8.94127E-20
 -1        15 0.00000E+00 0.00000E+00 2.00010E-03 0.00000E+00-1.16356E-18 2.49269E-19
 -1        16 0.00000E+00 0.00000E+00 2.00010E-03 0.00000E+00 4.45153E-19 4.17991E-19
 -1        17 0.00000E+00 0.00000E+00 2.00010E-03 0.00000E+00-4.86716E-20 2.27507E-19
 -1        18 0.00000E+00 0.00000E+00 2.00010E-03 0.00000E+00 6.09490E-19-7.85158E-19
 -1        19 0.00000E+00 0.00000E+00 2.00010E-03 0.00000E+00 5.23083E-19-1.12112E-19
 -1        20 0.00000E+00 0.00000E+00 2.00010E-03 0.00000E+00 2.30452E-19 4.46960E-19
 -3
    1PSTEP                       284          57           1          
  100CL  157 78746.29362          20                     0   57           1
 -4  FORC        4    1
 -5  F1          1    2    1    0
 -5  F2          1    2    2    0
 -5  F3          1    2    3    0
 -5  ALL         1    2    0    0    1ALL
 -1         1-1.39649E+01-1.39649E+01 2.20702E+01
 -1         2-1.39649E+01 1.39649E+01 2.20702E+01
 -1         3-1.39649E+01 1.39649E+01-2.20702E+01
 -1         4-1.39649E+01-1.39649E+01-2.20702E+01
 -1         5 1.39649E+01-1.39649E+01 2.20702E+01
 -1         6 1.39649E+01 1.39649E+01 2.20702E+01
 -1         7 1.39649E+01 1.39649E+01-2.20702E+01
 -1         8 1.39649E+01-1.39649E+01-2.20702E+01
 -1         9 5.58596E+01-6.69445E-15-8.82809E+01
 -1        10 5.58596E+01-5.58596E+01 1.42109E-14
 -1        11 5.58596E+01 4.02992E-15 8.82809E+01
 -1        12 5.58596E+01 5.58596E+01 1.08247E-14
 -1        13 4.64001E-15 5.58596E+01-8.82809E+01
 -1        14 1.60288E-14-5.58596E+01-8.82809E+01
 -1        15 3.73321E-15-5.58596E+01 8.82809E+01
 -1        16-6.43208E-16 5.58596E+01 8.82809E+01
 -1        17-5.58596E+01-4.82760E-16-8.82809E+01
 -1        18-5.58596E+01-5.58596E+01 7.10543E-15
 -1        19-5.58596E+01-1.51564E-15 8.82809E+01
 -1        20-5.58596E+01 5.58596E+01-2.22045E-15
 -3
    1PSTEP                       285          57           1          
  100CL  157 78746.29362          20                     0   57           1
 -4  ERROR       1    1
 -5  STR(%)      1    1    0    0
 -1         1 1.31740E-14
 -1         2 1.31740E-14
 -1         3 1.31740E-14
 -1         4 1.31740E-14
 -1         5 1.31740E-14
 -1         6 1.31740E-14
 -1         7 1.31740E-14
 -1         8 1.31740E-14
 -1         9 1.31740E-14
 -1        10 1.31740E-14
 -1        11 1.31740E-14
 -1        12 1.31740E-14
 -1        13 1.31740E-14
 -1        14 1.31740E-14
 -1        15 1.31740E-14
 -1        16 1.31740E-14
 -1        17 1.31740E-14
 -1        18 1.31740E-14
 -1        19 1.31740E-14
 -1        20 1.31740E-14
 -3
    1PSTEP                       286          58           1          
  100CL  158 80268.81481          20                     0   58           1
 -4  DISP        4    1
 -5  D1          1    2    1    0
 -5  D2          1    2    2    0
 -5  D3          1    2    3    0
 -5  ALL         1    2    0    0    1ALL
 -1         1 0.00000E+00 0.00000E+00 0.00000E+00
 -1         2 0.00000E+00 0.00000E+00 0.00000E+00
 -1         3 0.00000E+00 0.00000E+00 2.00000E-03
 -1         4 0.00000E+00 0.00000E+00 2.00000E-03
 -1         5 0.00000E+00 0.00000E+00 0.00000E+00
 -1         6 0.00000E+00 0.00000E+00 0.00000E+00
 -1         7 0.00000E+00 0.00000E+00 2.00000E-03
 -1         8 0.00000E+00 0.00000E+00 2.00000E-03
 -1         9 0.00000E+00 0.00000E+00 0.00000E+00
 -1        10 0.00000E+00 0.00000E+00 1.00000E-03
 -1        11 0.00000E+00 0.00000E+00 2.00000E-03
 -1        12 0.00000E+00 0.00000E+00 1.00000E-03
 -1        13 0.00000E+00 0.00000E+00 0.00000E+00
 -1        14 0.00000E+00 0.00000E+00 0.00000E+00
 -1        15 0.00000E+00 0.00000E+00 2.00000E-03
 -1        16 0.00000E+00 0.00000E+00 2.00000E-03
 -1        17 0.00000E+00 0.00000E+00 0.00000E+00
 -1        18 0.00000E+00 0.00000E+00 1.00000E-03
 -1        19 0.00000E+00 0.00000E+00 2.00000E-03
 -1        20 0.00000E+00 0.00000E+00 1.00000E-03
 -3
    1PSTEP                       287          58           1          
  100CL  158 80268.81481          20                     0   58           1
 -4  STRESS      6    1
 -5  SXX         1    4    1    1
 -5  SYY         1    4    2    2
 -5  SZZ         1    4    3    3
 -5  SXY         1    4    1    2
 -5  SYZ         1    4    2    3
 -5  SZX         1    4    3    1
 -1         1 1.67769E+02 1.67769E+02 2.64438E+02 0.00000E+00 1.99409E-14 3.47569E-14
 -1         2 1.67769E+02 1.67769E+02 2.64438E+02 0.00000E+00-3.13624E-14-3.90889E-14
 -1         3 1.67769E+02 1.67769E+02 2.64438E+02 0.00000E+00-4.87778E-15-5.79309E-14
 -1         4 1.67769E+02 1.67769E+02 2.64438E+02 0.00000E+00-1.11590E-14 8.51362E-14
 -1         5 1.67769E+02 1.67769E+02 2.64438E+02 0.00000E+00 1.43152E-14-1.22399E-14
 -1         6 1.67769E+02 1.67769E+02 2.64438E+02 0.00000E+00-1.03370E-14 4.18982E-16
 -1         7 1.67769E+02 1.67769E+02 2.64438E+02 0.00000E+00 9.33991E-14 6.83031E-14
 -1         8 1.67769E+02 1.67769E+02 2.64438E+02 0.00000E+00-1.41863E-16-1.81989E-14
 -1         9 1.67784E+02 1.67784E+02 2.64461E+02 0.00000E+00-2.02429E-14-9.88923E-15
 -1        10 1.67784E+02 1.67784E+02 2.64461E+02 0.00000E+00 2.12874E-14 1.86213E-14
 -1        11 1.67784E+02 1.67784E+02 2.64461E+02 0.00000E+00 1.23062E-14 1.08159E-14
 -1        12 1.67784E+02 1.67784E+02 2.64461E+02 0.00000E+00 1.17010E-14 8.30340E-15
 -1        13 1.67784E+02 1.67784E+02 2.64461E+02 0.00000E+00-8.31885E-15-1.22479E-15
 -1        14 1.67784E+02 1.67784E+02 2.64461E+02 0.00000E+00 1.98255E-14 4.32186E-15
 -1        15 1.67784E+02 1.67784E+02 2.64461E+02 0.00000E+00-5.62422E-14 1.20487E-14
 -1        16 1.67784E+02 1.67784E+02 2.64461E+02 0.00000E+00 2.15170E-14 2.02041E-14
 -1        17 1.67784E+02 1.67784E+02 2.64461E+02 0.00000E+00-2.35260E-15 1.09968E-14
 -1        18 1.67784E+02 1.67784E+02 2.64461E+02 0.00000E+00 2.94604E-14-3.79515E-14
 -1        19 1.67784E+02 1.67784E+02 2.64461E+02 0.00000E+00 2.52838E-14-5.41904E-15
 -1        20 1.67784E+02 1.67784E+02 2.64461E+02 0.00000E+00 1.11391E-14 2.16043E-14
 -3
    1PSTEP                       288          58           1          
  100CL  158 80268.81481          20                     0   58           1
 -4  TOSTRAIN    6    1
 -5  EXX         1    4    1    1
 -5  EYY         1    4    2    2
 -5  EZZ         1    4    3    3
 -5  EXY         1    4    1    2
 -5  EYZ         1    4    2    3
 -5  EZX         1    4    3    1
 -1         1 0.00000E+00 0.00000E+00 1.99992E-03 0.00000E+00 4.12546E-19 7.19066E-19
 -1         2 0.00000E+00 0.00000E+00 1.99992E-03 0.00000E+00-6.48839E-19-8.08690E-19
 -1         3 0.00000E+00 0.00000E+00 1.99992E-03 0.00000E+00-1.00914E-19-1.19850E-18
 -1         4 0.00000E+00 0.00000E+00 1.99992E-03 0.00000E+00-2.30863E-19 1.76134E-18
 -1         5 0.00000E+00 0.00000E+00 1.99992E-03 0.00000E+00 2.96159E-19-2.53224E-19
 -1         6 0.00000E+00 0.00000E+00 1.99992E-03 0.00000E+00-2.13856E-19 8.66809E-21
 -1         7 0.00000E+00 0.00000E+00 1.99992E-03 0.00000E+00 1.93228E-18 1.41309E-18
 -1         8 0.00000E+00 0.00000E+00 1.99992E-03 0.00000E+00-2.93494E-21-3.76507E-19
 -1         9 0.00000E+00 0.00000E+00 2.00010E-03 0.00000E+00-4.18795E-19-2.04593E-19
 -1        10 0.00000E+00 0.00000E+00 2.00010E-03 0.00000E+00 4.40404E-19 3.85247E-19
 -1        11 0.00000E+00 0.00000E+00 2.00010E-03 0.00000E+00 2.54597E-19 2.23763E-19
 -1        12 0.00000E+00 0.00000E+00 2.00010E-03 0.00000E+00 2.42075E-19 1.71784E-19
 -1        13 0.00000E+00 0.00000E+00 2.00010E-03 0.00000E+00-1.72104E-19-2.53389E-20
 -1        14 0.00000E+00 0.00000E+00 2.00010E-03 0.00000E+00 4.10158E-19 8.94127E-20
 -1        15 0.00000E+00 0.00000E+00 2.00010E-03 0.00000E+00-1.16356E-18 2.49269E-19
 -1        16 0.00000E+00 0.00000E+00 2.00010E-03 0.00000E+00 4.45153E-19 4.17991E-19
 -1        17 0.00000E+00 0.00000E+00 2.00010E-03 0.00000E+00-4.86716E-20 2.27507E-19
 -1        18 0.00000E+00 0.00000E+00 2.00010E-03 0.00000E+00 6.09490E-19-7.85158E-19
 -1        19 0.00000E+00 0.00000E+00 2.00010E-03 0.00000E+00 5.23083E-19-1.12112E-19
 -1        20 0.00000E+00 0.00000E+00 2.00010E-03 0.00000E+00 2.30452E-19 4.46960E-19
 -3
    1PSTEP                       289          58           1          
  100CL  158 80268.81481          20                     0   58           1
 -4  FORC        4    1
 -5  F1          1    2    1    0
 -5  F2          1    2    2    0
 -5  F3          1    2    3    0
 -5  ALL         1    2    0    0    1ALL
 -1         1-1.39813E+01-1.39813E+01 2.20373E+01
 -1         2-1.39813E+01 1.39813E+01 2.20373E+01
 -1         3-1.39813E+01 1.39813E+01-2.20373E+01
 -1         4-1.39813E+01-1.39813E+01-2.20373E+01
 -1         5 1.39813E+01-1.39813E+01 2.20373E+01
 -1         6 1.39813E+01 1.39813E+01 2.20373E+01
 -1         7 1.39813E+01 1.39813E+01-2.20373E+01
 -1         8 1.39813E+01-1.39813E+01-2.20373E+01
 -1         9 5.59253E+01-6.72201E-15-8.81494E+01
 -1        10 5.59253E+01-5.59253E+01 3.99680E-15
 -1        11 5.59253E+01 6.91630E-15 8.81494E+01
 -1        12 5.59253E+01 5.59253E+01 2.45082E-14
 -1        13-2.54854E-15 5.59253E+01-8.81494E+01
 -1        14 3.81741E-15-5.59253E+01-8.81494E+01
 -1        15-3.37332E-15-5.59253E+01 8.81494E+01
 -1        16 6.24004E-15 5.59253E+01 8.81494E+01
 -1        17-5.59253E+01 4.07004E-16-8.81494E+01
 -1        18-5.59253E+01-5.59253E+01-5.32907E-15
 -1        19-5.59253E+01 3.81184E-15 8.81494E+01
 -1        20-5.59253E+01 5.59253E+01 3.10862E-15
 -3
    1PSTEP                       290          58           1          
  100CL  158 80268.81481          20                     0   58           1
 -4  ERROR       1    1
 -5  STR(%)      1    1    0    0
 -1         1 1.53926E-14
 -1         2 1.53926E-14
 -1         3 1.53926E-14
 -1         4 1.53926E-14
 -1         5 1.53926E-14
 -1         6 1.53926E-14
 -1         7 1.53926E-14
 -1         8 1.53926E-14
 -1         9 1.53926E-14
 -1        10 1.53926E-14
 -1        11 1.53926E-14
 -1        12 1.53926E-14
 -1        13 1.53926E-14
 -1        14 1.53926E-14
 -1        15 1.53926E-14
 -1        16 1.53926E-14
 -1        17 1.53926E-14
 -1        18 1.53926E-14
 -1        19 1.53926E-14
 -1        20 1.53926E-14
 -3
    1PSTEP                       291          59           1          
  100CL  159 82552.59659          20                     0   59           1
 -4  DISP        4    1
 -5  D1          1    2    1    0
 -5  D2          1    2    2    0
 -5  D3          1    2    3    0
 -5  ALL         1    2    0    0    1ALL
 -1         1 0.00000E+00 0.00000E+00 0.00000E+00
 -1         2 0.00000E+00 0.00000E+00 0.00000E+00
 -1         3 0.00000E+00 0.00000E+00 2.00000E-03
 -1         4 0.00000E+00 0.00000E+00 2.00000E-03
 -1         5 0.00000E+00 0.00000E+00 0.00000E+00
 -1         6 0.00000E+00 0.00000E+00 0.00000E+00
 -1         7 0.00000E+00 0.00000E+00 2.00000E-03
 -1         8 0.00000E+00 0.00000E+00 2.00000E-03
 -1         9 0.00000E+00 0.00000E+00 0.00000E+00
 -1        10 0.00000E+00 0.00000E+00 1.00000E-03
 -1        11 0.00000E+00 0.00000E+00 2.00000E-03
 -1        12 0.00000E+00 0.00000E+00 1.00000E-03
 -1        13 0.00000E+00 0.00000E+00 0.00000E+00
 -1        14 0.00000E+00 0.00000E+00 0.00000E+00
 -1        15 0.00000E+00 0.00000E+00 2.00000E-03
 -1        16 0.00000E+00 0.00000E+00 2.00000E-03
 -1        17 0.00000E+00 0.00000E+00 0.00000E+00
 -1        18 0.00000E+00 0.00000E+00 1.00000E-03
 -1        19 0.00000E+00 0.00000E+00 2.00000E-03
 -1        20 0.00000E+00 0.00000E+00 1.00000E-03
 -3
    1PSTEP                       292          59           1          
  100CL  159 82552.59659          20                     0   59           1
 -4  STRESS      6    1
 -5  SXX         1    4    1    1
 -5  SYY         1    4    2    2
 -5  SZZ         1    4    3    3
 -5  SXY         1    4    1    2
 -5  SYZ         1    4    2    3
 -5  SZX         1    4    3    1
 -1         1 1.68062E+02 1.68062E+02 2.63851E+02 0.00000E+00 1.97595E-14 3.44407E-14
 -1         2 1.68062E+02 1.68062E+02 2.63851E+02 0.00000E+00-3.10771E-14-3.87334E-14
 -1         3 1.68062E+02 1.68062E+02 2.63851E+02 0.00000E+00-4.83341E-15-5.74040E-14
 -1         4 1.68062E+02 1.68062E+02 2.63851E+02 0.00000E+00-1.10575E-14 8.43618E-14
 -1         5 1.68062E+02 1.68062E+02 2.63851E+02 0.00000E+00 1.41850E-14-1.21285E-14
 -1         6 1.68062E+02 1.68062E+02 2.63851E+02 0.00000E+00-1.02430E-14 4.15171E-16
 -1         7 1.68062E+02 1.68062E+02 2.63851E+02 0.00000E+00 9.25495E-14 6.76818E-14
 -1         8 1.68062E+02 1.68062E+02 2.63851E+02 0.00000E+00-1.40573E-16-1.80333E-14
 -1         9 1.68077E+02 1.68077E+02 2.63875E+02 0.00000E+00-2.00588E-14-9.79928E-15
 -1        10 1.68077E+02 1.68077E+02 2.63875E+02 0.00000E+00 2.10938E-14 1.84520E-14
 -1        11 1.68077E+02 1.68077E+02 2.63875E+02 0.00000E+00 1.21943E-14 1.07175E-14
 -1        12 1.68077E+02 1.68077E+02 2.63875E+02 0.00000E+00 1.15945E-14 8.22787E-15
 -1        13 1.68077E+02 1.68077E+02 2.63875E+02 0.00000E+00-8.24318E-15-1.21365E-15
 -1        14 1.68077E+02 1.68077E+02 2.63875E+02 0.00000E+00 1.96451E-14 4.28255E-15
 -1        15 1.68077E+02 1.68077E+02 2.63875E+02 0.00000E+00-5.57307E-14 1.19391E-14
 -1        16 1.68077E+02 1.68077E+02 2.63875E+02 0.00000E+00 2.13213E-14 2.00203E-14
 -1        17 1.68077E+02 1.68077E+02 2.63875E+02 0.00000E+00-2.33120E-15 1.08968E-14
 -1        18 1.68077E+02 1.68077E+02 2.63875E+02 0.00000E+00 2.91924E-14-3.76063E-14
 -1        19 1.68077E+02 1.68077E+02 2.63875E+02 0.00000E+00 2.50538E-14-5.36975E-15
 -1        20 1.68077E+02 1.68077E+02 2.63875E+02 0.00000E+00 1.10378E-14 2.14078E-14
 -3
    1PSTEP                       293          59           1          
  100CL  159 82552.59659          20                     0   59           1
 -4  TOSTRAIN    6    1
 -5  EXX         1    4    1    1
 -5  EYY         1    4    2    2
 -5  EZZ         1    4    3    3
 -5  EXY         1    4    1    2
 -5  EYZ         1    4    2    3
 -5  EZX         1    4    3    1
 -1         1 0.00000E+00 0.00000E+00 1.99992E-03 0.00000E+00 4.12546E-19 7.19066E-19
 -1         2 0.00000E+00 0.00000E+00 1.99992E-03 0.00000E+00-6.48839E-19-8.08690E-19
 -1         3 0.00000E+00 0.00000E+00 1.99992E-03 0.00000E+00-1.00914E-19-1.19850E-18
 -1         4 0.00000E+00 0.00000E+00 1.99992E-03 0.00000E+00-2.30863E-19 1.76134E-18
 -1         5 0.00000E+00 0.00000E+00 1.99992E-03 0.00000E+00 2.96159E-19-2.53224E-19
 -1         6 0.00000E+00 0.00000E+00 1.99992E-03 0.00000E+00-2.13856E-19 8.66809E-21
 -1         7 0.00000E+00 0.00000E+00 1.99992E-03 0.00000E+00 1.93228E-18 1.41309E-18
 -1         8 0.00000E+00 0.00000E+00 1.99992E-03 0.00000E+00-2.93494E-21-3.76507E-19
 -1         9 0.00000E+00 0.00000E+00 2.00010E-03 0.00000E+00-4.18795E-19-2.04593E-19
 -1        10 0.00000E+00 0.00000E+00 2.00010E-03 0.00000E+00 4.40404E-19 3.85247E-19
 -1        11 0.00000E+00 0.00000E+00 2.00010E-03 0.00000E+00 2.54597E-19 2.23763E-19
 -1        12 0.00000E+00 0.00000E+00 2.00010E-03 0.00000E+00 2.42075E-19 1.71784E-19
 -1        13 0.00000E+00 0.00000E+00 2.00010E-03 0.00000E+00-1.72104E-19-2.53389E-20
 -1        14 0.00000E+00 0.00000E+00 2.00010E-03 0.00000E+00 4.10158E-19 8.94127E-20
 -1        15 0.00000E+00 0.00000E+00 2.00010E-03 0.00000E+00-1.16356E-18 2.49269E-19
 -1        16 0.00000E+00 0.00000E+00 2.00010E-03 0.00000E+00 4.45153E-19 4.17991E-19
 -1        17 0.00000E+00 0.00000E+00 2.00010E-03 0.00000E+00-4.86716E-20 2.27507E-19
 -1        18 0.00000E+00 0.00000E+00 2.00010E-03 0.00000E+00 6.09490E-19-7.85158E-19
 -1        19 0.00000E+00 0.00000E+00 2.00010E-03 0.00000E+00 5.23083E-19-1.12112E-19
 -1        20 0.00000E+00 0.00000E+00 2.00010E-03 0.00000E+00 2.30452E-19 4.46960E-19
 -3
    1PSTEP                       294          59           1          
  100CL  159 82552.59659          20                     0   59           1
 -4  FORC        4    1
 -5  F1          1    2    1    0
 -5  F2          1    2    2    0
 -5  F3          1    2    3    0
 -5  ALL         1    2    0    0    1ALL
 -1         1-1.40058E+01-1.40058E+01 2.19885E+01
 -1         2-1.40058E+01 1.40058E+01 2.19885E+01
 -1         3-1.40058E+01 1.40058E+01-2.19885E+01
 -1         4-1.40058E+01-1.40058E+01-2.19885E+01
 -1         5 1.40058E+01-1.40058E+01 2.19885E+01
 -1         6 1.40058E+01 1.40058E+01 2.19885E+01
 -1         7 1.40058E+01 1.40058E+01-2.19885E+01
 -1         8 1.40058E+01-1.40058E+01-2.19885E+01
 -1         9 5.60230E+01-4.05717E-15-8.79540E+01
 -1        10 5.60230E+01-5.60230E+01 4.44089E-16
 -1        11 5.60230E+01 8.91440E-15 8.79540E+01
 -1        12 5.60230E+01 5.60230E+01 1.36280E-14
 -1        13-4.51898E-15 5.60230E+01-8.79540E+01
 -1        14 1.35890E-14-5.60230E+01-8.79540E+01
 -1        15 1.95412E-15-5.60230E+01 8.79540E+01
 -1        16-6.43555E-16 5.60230E+01 8.79540E+01
 -1        17-5.60230E+01 4.09361E-16-8.79540E+01
 -1        18-5.60230E+01-5.60230E+01 5.32907E-15
 -1        19-5.60230E+01 3.80949E-15 8.79540E+01
 -1        20-5.60230E+01 5.60230E+01-1.77636E-15
 -3
    1PSTEP                       295          59           1          
  100CL  159 82552.59659          20                     0   59           1
 -4  ERROR       1    1
 -5  STR(%)      1    1    0    0
 -1         1 1.43249E-14
 -1         2 1.43249E-14
 -1         3 1.43249E-14
 -1         4 1.43249E-14
 -1         5 1.43249E-14
 -1         6 1.43249E-14
 -1         7 1.43249E-14
 -1         8 1.43249E-14
 -1         9 1.43249E-14
 -1        10 1.43249E-14
 -1        11 1.43249E-14
 -1        12 1.43249E-14
 -1        13 1.43249E-14
 -1        14 1.43249E-14
 -1        15 1.43249E-14
 -1        16 1.43249E-14
 -1        17 1.43249E-14
 -1        18 1.43249E-14
 -1        19 1.43249E-14
 -1        20 1.43249E-14
 -3
    1PSTEP                       296          60           1          
  100CL  160 84177.98116          20                     0   60           1
 -4  DISP        4    1
 -5  D1          1    2    1    0
 -5  D2          1    2    2    0
 -5  D3          1    2    3    0
 -5  ALL         1    2    0    0    1ALL
 -1         1 0.00000E+00 0.00000E+00 0.00000E+00
 -1         2 0.00000E+00 0.00000E+00 0.00000E+00
 -1         3 0.00000E+00 0.00000E+00 2.00000E-03
 -1         4 0.00000E+00 0.00000E+00 2.00000E-03
 -1         5 0.00000E+00 0.00000E+00 0.00000E+00
 -1         6 0.00000E+00 0.00000E+00 0.00000E+00
 -1         7 0.00000E+00 0.00000E+00 2.00000E-03
 -1         8 0.00000E+00 0.00000E+00 2.00000E-03
 -1         9 0.00000E+00 0.00000E+00 0.00000E+00
 -1        10 0.00000E+00 0.00000E+00 1.00000E-03
 -1        11 0.00000E+00 0.00000E+00 2.00000E-03
 -1        12 0.00000E+00 0.00000E+00 1.00000E-03
 -1        13 0.00000E+00 0.00000E+00 0.00000E+00
 -1        14 0.00000E+00 0.00000E+00 0.00000E+00
 -1        15 0.00000E+00 0.00000E+00 2.00000E-03
 -1        16 0.00000E+00 0.00000E+00 2.00000E-03
 -1        17 0.00000E+00 0.00000E+00 0.00000E+00
 -1        18 0.00000E+00 0.00000E+00 1.00000E-03
 -1        19 0.00000E+00 0.00000E+00 2.00000E-03
 -1        20 0.00000E+00 0.00000E+00 1.00000E-03
 -3
    1PSTEP                       297          60           1          
  100CL  160 84177.98116          20                     0   60           1
 -4  STRESS      6    1
 -5  SXX         1    4    1    1
 -5  SYY         1    4    2    2
 -5  SZZ         1    4    3    3
 -5  SXY         1    4    1    2
 -5  SYZ         1    4    2    3
 -5  SZX         1    4    3    1
 -1         1 1.68270E+02 1.68270E+02 2.63437E+02 0.00000E+00 1.96312E-14 3.42172E-14
 -1         2 1.68270E+02 1.68270E+02 2.63437E+02 0.00000E+00-3.08754E-14-3.84820E-14
 -1         3 1.68270E+02 1.68270E+02 2.63437E+02 0.00000E+00-4.80204E-15-5.70314E-14
 -1         4 1.68270E+02 1.68270E+02 2.63437E+02 0.00000E+00-1.09857E-14 8.38143E-14
 -1         5 1.68270E+02 1.68270E+02 2.63437E+02 0.00000E+00 1.40929E-14-1.20498E-14
 -1         6 1.68270E+02 1.68270E+02 2.63437E+02 0.00000E+00-1.01765E-14 4.12476E-16
 -1         7 1.68270E+02 1.68270E+02 2.63437E+02 0.00000E+00 9.19488E-14 6.72425E-14
 -1         8 1.68270E+02 1.68270E+02 2.63437E+02 0.00000E+00-1.39661E-16-1.79163E-14
 -1         9 1.68285E+02 1.68285E+02 2.63461E+02 0.00000E+00-1.99286E-14-9.73568E-15
 -1        10 1.68285E+02 1.68285E+02 2.63461E+02 0.00000E+00 2.09569E-14 1.83322E-14
 -1        11 1.68285E+02 1.68285E+02 2.63461E+02 0.00000E+00 1.21151E-14 1.06479E-14
 -1        12 1.68285E+02 1.68285E+02 2.63461E+02 0.00000E+00 1.15193E-14 8.17447E-15
 -1        13 1.68285E+02 1.68285E+02 2.63461E+02 0.00000E+00-8.18968E-15-1.20577E-15
 -1        14 1.68285E+02 1.68285E+02 2.63461E+02 0.00000E+00 1.95176E-14 4.25476E-15
 -1        15 1.68285E+02 1.68285E+02 2.63461E+02 0.00000E+00-5.53689E-14 1.18616E-14
 -1        16 1.68285E+02 1.68285E+02 2.63461E+02 0.00000E+00 2.11829E-14 1.98903E-14
 -1        17 1.68285E+02 1.68285E+02 2.63461E+02 0.00000E+00-2.31607E-15 1.08261E-14
 -1        18 1.68285E+02 1.68285E+02 2.63461E+02 0.00000E+00 2.90030E-14-3.73622E-14
 -1        19 1.68285E+02 1.68285E+02 2.63461E+02 0.00000E+00 2.48912E-14-5.33490E-15
 -1        20 1.68285E+02 1.68285E+02 2.63461E+02 0.00000E+00 1.09662E-14 2.12688E-14
 -3
    1PSTEP                       298          60           1          
  100CL  160 84177.98116          20                     0   60           1
 -4  TOSTRAIN    6    1
 -5  EXX         1    4    1    1
 -5  EYY         1    4    2    2
 -5  EZZ         1    4    3    3
 -5  EXY         1    4    1    2
 -5  EYZ         1    4    2    3
 -5  EZX         1    4    3    1
 -1         1 0.00000E+00 0.00000E+00 1.99992E-03 0.00000E+00 4.12546E-19 7.19066E-19
 -1         2 0.00000E+00 0.00000E+00 1.99992E-03 0.00000E+00-6.48839E-19-8.08690E-19
 -1         3 0.00000E+00 0.00000E+00 1.99992E-03 0.00000E+00-1.00914E-19-1.19850E-18
 -1         4 0.00000E+00 0.00000E+00 1.99992E-03 0.00000E+00-2.30863E-19 1.76134E-18
 -1         5 0.00000E+00 0.00000E+00 1.99992E-03 0.00000E+00 2.96159E-19-2.53224E-19
 -1         6 0.00000E+00 0.00000E+00 1.99992E-03 0.00000E+00-2.13856E-19 8.66809E-21
 -1         7 0.00000E+00 0.00000E+00 1.99992E-03 0.00000E+00 1.93228E-18 1.41309E-18
 -1         8 0.00000E+00 0.00000E+00 1.99992E-03 0.00000E+00-2.93494E-21-3.76507E-19
 -1         9 0.00000E+00 0.00000E+00 2.00010E-03 0.00000E+00-4.18795E-19-2.04593E-19
 -1        10 0.00000E+00 0.00000E+00 2.00010E-03 0.00000E+00 4.40404E-19 3.85247E-19
 -1        11 0.00000E+00 0.00000E+00 2.00010E-03 0.00000E+00 2.54597E-19 2.23763E-19
 -1        12 0.00000E+00 0.00000E+00 2.00010E-03 0.00000E+00 2.42075E-19 1.71784E-19
 -1        13 0.00000E+00 0.00000E+00 2.00010E-03 0.00000E+00-1.72104E-19-2.53389E-20
 -1        14 0.00000E+00 0.00000E+00 2.00010E-03 0.00000E+00 4.10158E-19 8.94127E-20
 -1        15 0.00000E+00 0.00000E+00 2.00010E-03 0.00000E+00-1.16356E-18 2.49269E-19
 -1        16 0.00000E+00 0.00000E+00 2.00010E-03 0.00000E+00 4.45153E-19 4.17991E-19
 -1        17 0.00000E+00 0.00000E+00 2.00010E-03 0.00000E+00-4.86716E-20 2.27507E-19
 -1        18 0.00000E+00 0.00000E+00 2.00010E-03 0.00000E+00 6.09490E-19-7.85158E-19
 -1        19 0.00000E+00 0.00000E+00 2.00010E-03 0.00000E+00 5.23083E-19-1.12112E-19
 -1        20 0.00000E+00 0.00000E+00 2.00010E-03 0.00000E+00 2.30452E-19 4.46960E-19
 -3
    1PSTEP                       299          60           1          
  100CL  160 84177.98116          20                     0   60           1
 -4  FORC        4    1
 -5  F1          1    2    1    0
 -5  F2          1    2    2    0
 -5  F3          1    2    3    0
 -5  ALL         1    2    0    0    1ALL
 -1         1-1.40230E+01-1.40230E+01 2.19540E+01
 -1         2-1.40230E+01 1.40230E+01 2.19540E+01
 -1         3-1.40230E+01 1.40230E+01-2.19540E+01
 -1         4-1.40230E+01-1.40230E+01-2.19540E+01
 -1         5 1.40230E+01-1.40230E+01 2.19540E+01
 -1         6 1.40230E+01 1.40230E+01 2.19540E+01
 -1         7 1.40230E+01 1.40230E+01-2.19540E+01
 -1         8 1.40230E+01-1.40230E+01-2.19540E+01
 -1         9 5.60921E+01-3.36307E-15-8.78158E+01
 -1        10 5.60921E+01-5.60921E+01-8.88178E-16
 -1        11 5.60921E+01 6.02761E-15 8.78158E+01
 -1        12 5.60921E+01 5.60921E+01 1.74305E-14
 -1        13 4.69602E-15 5.60921E+01-8.78158E+01
 -1        14 9.59335E-15-5.60921E+01-8.78158E+01
 -1        15-3.37610E-15-5.60921E+01 8.78158E+01
 -1        16-6.86095E-15 5.60921E+01 8.78158E+01
 -1        17-5.60921E+01 1.29921E-15-8.78158E+01
 -1        18-5.60921E+01-5.60921E+01-8.88178E-15
 -1        19-5.60921E+01 2.03146E-15 8.78158E+01
 -1        20-5.60921E+01 5.60921E+01-1.99840E-15
 -3
    1PSTEP                       300          60           1          
  100CL  160 84177.98116          20                     0   60           1
 -4  ERROR       1    1
 -5  STR(%)      1    1    0    0
 -1         1 3.20059E-14
 -1         2 3.20059E-14
 -1         3 3.20059E-14
 -1         4 3.20059E-14
 -1         5 3.20059E-14
 -1         6 3.20059E-14
 -1         7 3.20059E-14
 -1         8 3.20059E-14
 -1         9 3.20059E-14
 -1        10 3.20059E-14
 -1        11 3.20059E-14
 -1        12 3.20059E-14
 -1        13 3.20059E-14
 -1        14 3.20059E-14
 -1        15 3.20059E-14
 -1        16 3.20059E-14
 -1        17 3.20059E-14
 -1        18 3.20059E-14
 -1        19 3.20059E-14
 -1        20 3.20059E-14
 -3
    1PSTEP                       301          61           1          
  100CL  161 85803.36574          20                     0   61           1
 -4  DISP        4    1
 -5  D1          1    2    1    0
 -5  D2          1    2    2    0
 -5  D3          1    2    3    0
 -5  ALL         1    2    0    0    1ALL
 -1         1 0.00000E+00 0.00000E+00 0.00000E+00
 -1         2 0.00000E+00 0.00000E+00 0.00000E+00
 -1         3 0.00000E+00 0.00000E+00 2.00000E-03
 -1         4 0.00000E+00 0.00000E+00 2.00000E-03
 -1         5 0.00000E+00 0.00000E+00 0.00000E+00
 -1         6 0.00000E+00 0.00000E+00 0.00000E+00
 -1         7 0.00000E+00 0.00000E+00 2.00000E-03
 -1         8 0.00000E+00 0.00000E+00 2.00000E-03
 -1         9 0.00000E+00 0.00000E+00 0.00000E+00
 -1        10 0.00000E+00 0.00000E+00 1.00000E-03
 -1        11 0.00000E+00 0.00000E+00 2.00000E-03
 -1        12 0.00000E+00 0.00000E+00 1.00000E-03
 -1        13 0.00000E+00 0.00000E+00 0.00000E+00
 -1        14 0.00000E+00 0.00000E+00 0.00000E+00
 -1        15 0.00000E+00 0.00000E+00 2.00000E-03
 -1        16 0.00000E+00 0.00000E+00 2.00000E-03
 -1        17 0.00000E+00 0.00000E+00 0.00000E+00
 -1        18 0.00000E+00 0.00000E+00 1.00000E-03
 -1        19 0.00000E+00 0.00000E+00 2.00000E-03
 -1        20 0.00000E+00 0.00000E+00 1.00000E-03
 -3
    1PSTEP                       302          61           1          
  100CL  161 85803.36574          20                     0   61           1
 -4  STRESS      6    1
 -5  SXX         1    4    1    1
 -5  SYY         1    4    2    2
 -5  SZZ         1    4    3    3
 -5  SXY         1    4    1    2
 -5  SYZ         1    4    2    3
 -5  SZX         1    4    3    1
 -1         1 1.68475E+02 1.68475E+02 2.63025E+02 0.00000E+00 1.95038E-14 3.39951E-14
 -1         2 1.68475E+02 1.68475E+02 2.63025E+02 0.00000E+00-3.06750E-14-3.82322E-14
 -1         3 1.68475E+02 1.68475E+02 2.63025E+02 0.00000E+00-4.77087E-15-5.66612E-14
 -1         4 1.68475E+02 1.68475E+02 2.63025E+02 0.00000E+00-1.09144E-14 8.32703E-14
 -1         5 1.68475E+02 1.68475E+02 2.63025E+02 0.00000E+00 1.40014E-14-1.19716E-14
 -1         6 1.68475E+02 1.68475E+02 2.63025E+02 0.00000E+00-1.01104E-14 4.09799E-16
 -1         7 1.68475E+02 1.68475E+02 2.63025E+02 0.00000E+00 9.13520E-14 6.68061E-14
 -1         8 1.68475E+02 1.68475E+02 2.63025E+02 0.00000E+00-1.38754E-16-1.78000E-14
 -1         9 1.68491E+02 1.68491E+02 2.63049E+02 0.00000E+00-1.97993E-14-9.67248E-15
 -1        10 1.68491E+02 1.68491E+02 2.63049E+02 0.00000E+00 2.08209E-14 1.82132E-14
 -1        11 1.68491E+02 1.68491E+02 2.63049E+02 0.00000E+00 1.20365E-14 1.05788E-14
 -1        12 1.68491E+02 1.68491E+02 2.63049E+02 0.00000E+00 1.14445E-14 8.12141E-15
 -1        13 1.68491E+02 1.68491E+02 2.63049E+02 0.00000E+00-8.13652E-15-1.19794E-15
 -1        14 1.68491E+02 1.68491E+02 2.63049E+02 0.00000E+00 1.93910E-14 4.22714E-15
 -1        15 1.68491E+02 1.68491E+02 2.63049E+02 0.00000E+00-5.50095E-14 1.17846E-14
 -1        16 1.68491E+02 1.68491E+02 2.63049E+02 0.00000E+00 2.10454E-14 1.97612E-14
 -1        17 1.68491E+02 1.68491E+02 2.63049E+02 0.00000E+00-2.30103E-15 1.07558E-14
 -1        18 1.68491E+02 1.68491E+02 2.63049E+02 0.00000E+00 2.88147E-14-3.71197E-14
 -1        19 1.68491E+02 1.68491E+02 2.63049E+02 0.00000E+00 2.47297E-14-5.30027E-15
 -1        20 1.68491E+02 1.68491E+02 2.63049E+02 0.00000E+00 1.08950E-14 2.11308E-14
 -3
    1PSTEP                       303          61           1          
  100CL  161 85803.36574          20                     0   61           1
 -4  TOSTRAIN    6    1
 -5  EXX         1    4    1    1
 -5  EYY         1    4    2    2
 -5  EZZ         1    4    3    3
 -5  EXY         1    4    1    2
 -5  EYZ         1    4    2    3
 -5  EZX         1    4    3    1
 -1         1 0.00000E+00 0.00000E+00 1.99992E-03 0.00000E+00 4.12546E-19 7.19066E-19
 -1         2 0.00000E+00 0.00000E+00 1.99992E-03 0.00000E+00-6.48839E-19-8.08690E-19
 -1         3 0.00000E+00 0.00000E+00 1.99992E-03 0.00000E+00-1.00914E-19-1.19850E-18
 -1         4 0.00000E+00 0.00000E+00 1.99992E-03 0.00000E+00-2.30863E-19 1.76134E-18
 -1         5 0.00000E+00 0.00000E+00 1.99992E-03 0.00000E+00 2.96159E-19-2.53224E-19
 -1         6 0.00000E+00 0.00000E+00 1.99992E-03 0.00000E+00-2.13856E-19 8.66809E-21
 -1         7 0.00000E+00 0.00000E+00 1.99992E-03 0.00000E+00 1.93228E-18 1.41309E-18
 -1         8 0.00000E+00 0.00000E+00 1.99992E-03 0.00000E+00-2.93494E-21-3.76507E-19
 -1         9 0.00000E+00 0.00000E+00 2.00010E-03 0.00000E+00-4.18795E-19-2.04593E-19
 -1        10 0.00000E+00 0.00000E+00 2.00010E-03 0.00000E+00 4.40404E-19 3.85247E-19
 -1        11 0.00000E+00 0.00000E+00 2.00010E-03 0.00000E+00 2.54597E-19 2.23763E-19
 -1        12 0.00000E+00 0.00000E+00 2.00010E-03 0.00000E+00 2.42075E-19 1.71784E-19
 -1        13 0.00000E+00 0.00000E+00 2.00010E-03 0.00000E+00-1.72104E-19-2.53389E-20
 -1        14 0.00000E+00 0.00000E+00 2.00010E-03 0.00000E+00 4.10158E-19 8.94127E-20
 -1        15 0.00000E+00 0.00000E+00 2.00010E-03 0.00000E+00-1.16356E-18 2.49269E-19
 -1        16 0.00000E+00 0.00000E+00 2.00010E-03 0.00000E+00 4.45153E-19 4.17991E-19
 -1        17 0.00000E+00 0.00000E+00 2.00010E-03 0.00000E+00-4.86716E-20 2.27507E-19
 -1        18 0.00000E+00 0.00000E+00 2.00010E-03 0.00000E+00 6.09490E-19-7.85158E-19
 -1        19 0.00000E+00 0.00000E+00 2.00010E-03 0.00000E+00 5.23083E-19-1.12112E-19
 -1        20 0.00000E+00 0.00000E+00 2.00010E-03 0.00000E+00 2.30452E-19 4.46960E-19
 -3
    1PSTEP                       304          61           1          
  100CL  161 85803.36574          20                     0   61           1
 -4  FORC        4    1
 -5  F1          1    2    1    0
 -5  F2          1    2    2    0
 -5  F3          1    2    3    0
 -5  ALL         1    2    0    0    1ALL
 -1         1-1.40402E+01-1.40402E+01 2.19196E+01
 -1         2-1.40402E+01 1.40402E+01 2.19196E+01
 -1         3-1.40402E+01 1.40402E+01-2.19196E+01
 -1         4-1.40402E+01-1.40402E+01-2.19196E+01
 -1         5 1.40402E+01-1.40402E+01 2.19196E+01
 -1         6 1.40402E+01 1.40402E+01 2.19196E+01
 -1         7 1.40402E+01 1.40402E+01-2.19196E+01
 -1         8 1.40402E+01-1.40402E+01-2.19196E+01
 -1         9 5.61607E+01-8.71969E-15-8.76786E+01
 -1        10 5.61607E+01-5.61607E+01 1.19904E-14
 -1        11 5.61607E+01 7.80375E-15 8.76786E+01
 -1        12 5.61607E+01 5.61607E+01 2.17049E-14
 -1        13-5.15707E-15 5.61607E+01-8.76786E+01
 -1        14 9.15041E-15-5.61607E+01-8.76786E+01
 -1        15 1.75466E-16-5.61607E+01 8.76786E+01
 -1        16-5.30678E-15 5.61607E+01 8.76786E+01
 -1        17-5.61607E+01-4.75495E-16-8.76786E+01
 -1        18-5.61607E+01-5.61607E+01-1.77636E-15
 -1        19-5.61607E+01 2.02981E-15 8.76786E+01
 -1        20-5.61607E+01 5.61607E+01-1.99840E-15
 -3
    1PSTEP                       305          61           1          
  100CL  161 85803.36574          20                     0   61           1
 -4  ERROR       1    1
 -5  STR(%)      1    1    0    0
 -1         1 5.52690E-15
 -1         2 5.52690E-15
 -1         3 5.52690E-15
 -1         4 5.52690E-15
 -1         5 5.52690E-15
 -1         6 5.52690E-15
 -1         7 5.52690E-15
 -1         8 5.52690E-15
 -1         9 5.52690E-15
 -1        10 5.52690E-15
 -1        11 5.52690E-15
 -1        12 5.52690E-15
 -1        13 5.52690E-15
 -1        14 5.52690E-15
 -1        15 5.52690E-15
 -1        16 5.52690E-15
 -1        17 5.52690E-15
 -1        18 5.52690E-15
 -1        19 5.52690E-15
 -1        20 5.52690E-15
 -3
    1PSTEP                       306          62           1          
  100CL  162 88241.44261          20                     0   62           1
 -4  DISP        4    1
 -5  D1          1    2    1    0
 -5  D2          1    2    2    0
 -5  D3          1    2    3    0
 -5  ALL         1    2    0    0    1ALL
 -1         1 0.00000E+00 0.00000E+00 0.00000E+00
 -1         2 0.00000E+00 0.00000E+00 0.00000E+00
 -1         3 0.00000E+00 0.00000E+00 2.00000E-03
 -1         4 0.00000E+00 0.00000E+00 2.00000E-03
 -1         5 0.00000E+00 0.00000E+00 0.00000E+00
 -1         6 0.00000E+00 0.00000E+00 0.00000E+00
 -1         7 0.00000E+00 0.00000E+00 2.00000E-03
 -1         8 0.00000E+00 0.00000E+00 2.00000E-03
 -1         9 0.00000E+00 0.00000E+00 0.00000E+00
 -1        10 0.00000E+00 0.00000E+00 1.00000E-03
 -1        11 0.00000E+00 0.00000E+00 2.00000E-03
 -1        12 0.00000E+00 0.00000E+00 1.00000E-03
 -1        13 0.00000E+00 0.00000E+00 0.00000E+00
 -1        14 0.00000E+00 0.00000E+00 0.00000E+00
 -1        15 0.00000E+00 0.00000E+00 2.00000E-03
 -1        16 0.00000E+00 0.00000E+00 2.00000E-03
 -1        17 0.00000E+00 0.00000E+00 0.00000E+00
 -1        18 0.00000E+00 0.00000E+00 1.00000E-03
 -1        19 0.00000E+00 0.00000E+00 2.00000E-03
 -1        20 0.00000E+00 0.00000E+00 1.00000E-03
 -3
    1PSTEP                       307          62           1          
  100CL  162 88241.44261          20                     0   62           1
 -4  STRESS      6    1
 -5  SXX         1    4    1    1
 -5  SYY         1    4    2    2
 -5  SZZ         1    4    3    3
 -5  SXY         1    4    1    2
 -5  SYZ         1    4    2    3
 -5  SZX         1    4    3    1
 -1         1 1.68781E+02 1.68781E+02 2.62413E+02 0.00000E+00 1.93146E-14 3.36652E-14
 -1         2 1.68781E+02 1.68781E+02 2.62413E+02 0.00000E+00-3.03773E-14-3.78612E-14
 -1         3 1.68781E+02 1.68781E+02 2.62413E+02 0.00000E+00-4.72457E-15-5.61114E-14
 -1         4 1.68781E+02 1.68781E+02 2.62413E+02 0.00000E+00-1.08085E-14 8.24622E-14
 -1         5 1.68781E+02 1.68781E+02 2.62413E+02 0.00000E+00 1.38655E-14-1.18554E-14
 -1         6 1.68781E+02 1.68781E+02 2.62413E+02 0.00000E+00-1.00123E-14 4.05822E-16
 -1         7 1.68781E+02 1.68781E+02 2.62413E+02 0.00000E+00 9.04655E-14 6.61578E-14
 -1         8 1.68781E+02 1.68781E+02 2.62413E+02 0.00000E+00-1.37408E-16-1.76273E-14
 -1         9 1.68796E+02 1.68796E+02 2.62437E+02 0.00000E+00-1.96071E-14-9.57862E-15
 -1        10 1.68796E+02 1.68796E+02 2.62437E+02 0.00000E+00 2.06188E-14 1.80365E-14
 -1        11 1.68796E+02 1.68796E+02 2.62437E+02 0.00000E+00 1.19197E-14 1.04761E-14
 -1        12 1.68796E+02 1.68796E+02 2.62437E+02 0.00000E+00 1.13334E-14 8.04259E-15
 -1        13 1.68796E+02 1.68796E+02 2.62437E+02 0.00000E+00-8.05756E-15-1.18632E-15
 -1        14 1.68796E+02 1.68796E+02 2.62437E+02 0.00000E+00 1.92028E-14 4.18612E-15
 -1        15 1.68796E+02 1.68796E+02 2.62437E+02 0.00000E+00-5.44757E-14 1.16703E-14
 -1        16 1.68796E+02 1.68796E+02 2.62437E+02 0.00000E+00 2.08411E-14 1.95695E-14
 -1        17 1.68796E+02 1.68796E+02 2.62437E+02 0.00000E+00-2.27870E-15 1.06514E-14
 -1        18 1.68796E+02 1.68796E+02 2.62437E+02 0.00000E+00 2.85351E-14-3.67595E-14
 -1        19 1.68796E+02 1.68796E+02 2.62437E+02 0.00000E+00 2.44897E-14-5.24884E-15
 -1        20 1.68796E+02 1.68796E+02 2.62437E+02 0.00000E+00 1.07893E-14 2.09257E-14
 -3
    1PSTEP                       308          62           1          
  100CL  162 88241.44261          20                     0   62           1
 -4  TOSTRAIN    6    1
 -5  EXX         1    4    1    1
 -5  EYY         1    4    2    2
 -5  EZZ         1    4    3    3
 -5  EXY         1    4    1    2
 -5  EYZ         1    4    2    3
 -5  EZX         1    4    3    1
 -1         1 0.00000E+00 0.00000E+00 1.99992E-03 0.00000E+00 4.12546E-19 7.19066E-19
 -1         2 0.00000E+00 0.00000E+00 1.99992E-03 0.00000E+00-6.48839E-19-8.08690E-19
 -1         3 0.00000E+00 0.00000E+00 1.99992E-03 0.00000E+00-1.00914E-19-1.19850E-18
 -1         4 0.00000E+00 0.00000E+00 1.99992E-03 0.00000E+00-2.30863E-19 1.76134E-18
 -1         5 0.00000E+00 0.00000E+00 1.99992E-03 0.00000E+00 2.96159E-19-2.53224E-19
 -1         6 0.00000E+00 0.00000E+00 1.99992E-03 0.00000E+00-2.13856E-19 8.66809E-21
 -1         7 0.00000E+00 0.00000E+00 1.99992E-03 0.00000E+00 1.93228E-18 1.41309E-18
 -1         8 0.00000E+00 0.00000E+00 1.99992E-03 0.00000E+00-2.93494E-21-3.76507E-19
 -1         9 0.00000E+00 0.00000E+00 2.00010E-03 0.00000E+00-4.18795E-19-2.04593E-19
 -1        10 0.00000E+00 0.00000E+00 2.00010E-03 0.00000E+00 4.40404E-19 3.85247E-19
 -1        11 0.00000E+00 0.00000E+00 2.00010E-03 0.00000E+00 2.54597E-19 2.23763E-19
 -1        12 0.00000E+00 0.00000E+00 2.00010E-03 0.00000E+00 2.42075E-19 1.71784E-19
 -1        13 0.00000E+00 0.00000E+00 2.00010E-03 0.00000E+00-1.72104E-19-2.53389E-20
 -1        14 0.00000E+00 0.00000E+00 2.00010E-03 0.00000E+00 4.10158E-19 8.94127E-20
 -1        15 0.00000E+00 0.00000E+00 2.00010E-03 0.00000E+00-1.16356E-18 2.49269E-19
 -1        16 0.00000E+00 0.00000E+00 2.00010E-03 0.00000E+00 4.45153E-19 4.17991E-19
 -1        17 0.00000E+00 0.00000E+00 2.00010E-03 0.00000E+00-4.86716E-20 2.27507E-19
 -1        18 0.00000E+00 0.00000E+00 2.00010E-03 0.00000E+00 6.09490E-19-7.85158E-19
 -1        19 0.00000E+00 0.00000E+00 2.00010E-03 0.00000E+00 5.23083E-19-1.12112E-19
 -1        20 0.00000E+00 0.00000E+00 2.00010E-03 0.00000E+00 2.30452E-19 4.46960E-19
 -3
    1PSTEP                       309          62           1          
  100CL  162 88241.44261          20                     0   62           1
 -4  FORC        4    1
 -5  F1          1    2    1    0
 -5  F2          1    2    2    0
 -5  F3          1    2    3    0
 -5  ALL         1    2    0    0    1ALL
 -1         1-1.40657E+01-1.40657E+01 2.18687E+01
 -1         2-1.40657E+01 1.40657E+01 2.18687E+01
 -1         3-1.40657E+01 1.40657E+01-2.18687E+01
 -1         4-1.40657E+01-1.40657E+01-2.18687E+01
 -1         5 1.40657E+01-1.40657E+01 2.18687E+01
 -1         6 1.40657E+01 1.40657E+01 2.18687E+01
 -1         7 1.40657E+01 1.40657E+01-2.18687E+01
 -1         8 1.40657E+01-1.40657E+01-2.18687E+01
 -1         9 5.62627E+01-7.58140E-15-8.74746E+01
 -1        10 5.62627E+01-5.62627E+01 1.11022E-14
 -1        11 5.62627E+01 4.02868E-15 8.74746E+01
 -1        12 5.62627E+01 5.62627E+01 1.07969E-14
 -1        13-3.07518E-15 5.62627E+01-8.74746E+01
 -1        14 1.91441E-14-5.62627E+01-8.74746E+01
 -1        15 3.72648E-15-5.62627E+01 8.74746E+01
 -1        16 3.35274E-15 5.62627E+01 8.74746E+01
 -1        17-5.62627E+01-4.73036E-16-8.74746E+01
 -1        18-5.62627E+01-5.62627E+01 3.55271E-15
 -1        19-5.62627E+01 2.50991E-16 8.74746E+01
 -1        20-5.62627E+01 5.62627E+01-4.44089E-16
 -3
    1PSTEP                       310          62           1          
  100CL  162 88241.44261          20                     0   62           1
 -4  ERROR       1    1
 -5  STR(%)      1    1    0    0
 -1         1 1.32955E-14
 -1         2 1.32955E-14
 -1         3 1.32955E-14
 -1         4 1.32955E-14
 -1         5 1.32955E-14
 -1         6 1.32955E-14
 -1         7 1.32955E-14
 -1         8 1.32955E-14
 -1         9 1.32955E-14
 -1        10 1.32955E-14
 -1        11 1.32955E-14
 -1        12 1.32955E-14
 -1        13 1.32955E-14
 -1        14 1.32955E-14
 -1        15 1.32955E-14
 -1        16 1.32955E-14
 -1        17 1.32955E-14
 -1        18 1.32955E-14
 -1        19 1.32955E-14
 -1        20 1.32955E-14
 -3
    1PSTEP                       311          63           1          
  100CL  163 89800.46724          20                     0   63           1
 -4  DISP        4    1
 -5  D1          1    2    1    0
 -5  D2          1    2    2    0
 -5  D3          1    2    3    0
 -5  ALL         1    2    0    0    1ALL
 -1         1 0.00000E+00 0.00000E+00 0.00000E+00
 -1         2 0.00000E+00 0.00000E+00 0.00000E+00
 -1         3 0.00000E+00 0.00000E+00 2.00000E-03
 -1         4 0.00000E+00 0.00000E+00 2.00000E-03
 -1         5 0.00000E+00 0.00000E+00 0.00000E+00
 -1         6 0.00000E+00 0.00000E+00 0.00000E+00
 -1         7 0.00000E+00 0.00000E+00 2.00000E-03
 -1         8 0.00000E+00 0.00000E+00 2.00000E-03
 -1         9 0.00000E+00 0.00000E+00 0.00000E+00
 -1        10 0.00000E+00 0.00000E+00 1.00000E-03
 -1        11 0.00000E+00 0.00000E+00 2.00000E-03
 -1        12 0.00000E+00 0.00000E+00 1.00000E-03
 -1        13 0.00000E+00 0.00000E+00 0.00000E+00
 -1        14 0.00000E+00 0.00000E+00 0.00000E+00
 -1        15 0.00000E+00 0.00000E+00 2.00000E-03
 -1        16 0.00000E+00 0.00000E+00 2.00000E-03
 -1        17 0.00000E+00 0.00000E+00 0.00000E+00
 -1        18 0.00000E+00 0.00000E+00 1.00000E-03
 -1        19 0.00000E+00 0.00000E+00 2.00000E-03
 -1        20 0.00000E+00 0.00000E+00 1.00000E-03
 -3
    1PSTEP                       312          63           1          
  100CL  163 89800.46724          20                     0   63           1
 -4  STRESS      6    1
 -5  SXX         1    4    1    1
 -5  SYY         1    4    2    2
 -5  SZZ         1    4    3    3
 -5  SXY         1    4    1    2
 -5  SYZ         1    4    2    3
 -5  SZX         1    4    3    1
 -1         1 1.68976E+02 1.68976E+02 2.62025E+02 0.00000E+00 1.91943E-14 3.34555E-14
 -1         2 1.68976E+02 1.68976E+02 2.62025E+02 0.00000E+00-3.01881E-14-3.76254E-14
 -1         3 1.68976E+02 1.68976E+02 2.62025E+02 0.00000E+00-4.69515E-15-5.57620E-14
 -1         4 1.68976E+02 1.68976E+02 2.62025E+02 0.00000E+00-1.07412E-14 8.19486E-14
 -1         5 1.68976E+02 1.68976E+02 2.62025E+02 0.00000E+00 1.37792E-14-1.17816E-14
 -1         6 1.68976E+02 1.68976E+02 2.62025E+02 0.00000E+00-9.94996E-15 4.03295E-16
 -1         7 1.68976E+02 1.68976E+02 2.62025E+02 0.00000E+00 8.99021E-14 6.57458E-14
 -1         8 1.68976E+02 1.68976E+02 2.62025E+02 0.00000E+00-1.36552E-16-1.75175E-14
 -1         9 1.68991E+02 1.68991E+02 2.62048E+02 0.00000E+00-1.94850E-14-9.51897E-15
 -1        10 1.68991E+02 1.68991E+02 2.62048E+02 0.00000E+00 2.04904E-14 1.79241E-14
 -1        11 1.68991E+02 1.68991E+02 2.62048E+02 0.00000E+00 1.18455E-14 1.04109E-14
 -1        12 1.68991E+02 1.68991E+02 2.62048E+02 0.00000E+00 1.12629E-14 7.99251E-15
 -1        13 1.68991E+02 1.68991E+02 2.62048E+02 0.00000E+00-8.00738E-15-1.17893E-15
 -1        14 1.68991E+02 1.68991E+02 2.62048E+02 0.00000E+00 1.90832E-14 4.16005E-15
 -1        15 1.68991E+02 1.68991E+02 2.62048E+02 0.00000E+00-5.41365E-14 1.15976E-14
 -1        16 1.68991E+02 1.68991E+02 2.62048E+02 0.00000E+00 2.07114E-14 1.94476E-14
 -1        17 1.68991E+02 1.68991E+02 2.62048E+02 0.00000E+00-2.26451E-15 1.05851E-14
 -1        18 1.68991E+02 1.68991E+02 2.62048E+02 0.00000E+00 2.83574E-14-3.65306E-14
 -1        19 1.68991E+02 1.68991E+02 2.62048E+02 0.00000E+00 2.43372E-14-5.21615E-15
 -1        20 1.68991E+02 1.68991E+02 2.62048E+02 0.00000E+00 1.07221E-14 2.07954E-14
 -3
    1PSTEP                       313          63           1          
  100CL  163 89800.46724          20                     0   63           1
 -4  TOSTRAIN    6    1
 -5  EXX         1    4    1    1
 -5  EYY         1    4    2    2
 -5  EZZ         1    4    3    3
 -5  EXY         1    4    1    2
 -5  EYZ         1    4    2    3
 -5  EZX         1    4    3    1
 -1         1 0.00000E+00 0.00000E+00 1.99992E-03 0.00000E+00 4.12546E-19 7.19066E-19
 -1         2 0.00000E+00 0.00000E+00 1.99992E-03 0.00000E+00-6.48839E-19-8.08690E-19
 -1         3 0.00000E+00 0.00000E+00 1.99992E-03 0.00000E+00-1.00914E-19-1.19850E-18
 -1         4 0.00000E+00 0.00000E+00 1.99992E-03 0.00000E+00-2.30863E-19 1.76134E-18
 -1         5 0.00000E+00 0.00000E+00 1.99992E-03 0.00000E+00 2.96159E-19-2.53224E-19
 -1         6 0.00000E+00 0.00000E+00 1.99992E-03 0.00000E+00-2.13856E-19 8.66809E-21
 -1         7 0.00000E+00 0.00000E+00 1.99992E-03 0.00000E+00 1.93228E-18 1.41309E-18
 -1         8 0.00000E+00 0.00000E+00 1.99992E-03 0.00000E+00-2.93494E-21-3.76507E-19
 -1         9 0.00000E+00 0.00000E+00 2.00010E-03 0.00000E+00-4.18795E-19-2.04593E-19
 -1        10 0.00000E+00 0.00000E+00 2.00010E-03 0.00000E+00 4.40404E-19 3.85247E-19
 -1        11 0.00000E+00 0.00000E+00 2.00010E-03 0.00000E+00 2.54597E-19 2.23763E-19
 -1        12 0.00000E+00 0.00000E+00 2.00010E-03 0.00000E+00 2.42075E-19 1.71784E-19
 -1        13 0.00000E+00 0.00000E+00 2.00010E-03 0.00000E+00-1.72104E-19-2.53389E-20
 -1        14 0.00000E+00 0.00000E+00 2.00010E-03 0.00000E+00 4.10158E-19 8.94127E-20
 -1        15 0.00000E+00 0.00000E+00 2.00010E-03 0.00000E+00-1.16356E-18 2.49269E-19
 -1        16 0.00000E+00 0.00000E+00 2.00010E-03 0.00000E+00 4.45153E-19 4.17991E-19
 -1        17 0.00000E+00 0.00000E+00 2.00010E-03 0.00000E+00-4.86716E-20 2.27507E-19
 -1        18 0.00000E+00 0.00000E+00 2.00010E-03 0.00000E+00 6.09490E-19-7.85158E-19
 -1        19 0.00000E+00 0.00000E+00 2.00010E-03 0.00000E+00 5.23083E-19-1.12112E-19
 -1        20 0.00000E+00 0.00000E+00 2.00010E-03 0.00000E+00 2.30452E-19 4.46960E-19
 -3
    1PSTEP                       314          63           1          
  100CL  163 89800.46724          20                     0   63           1
 -4  FORC        4    1
 -5  F1          1    2    1    0
 -5  F2          1    2    2    0
 -5  F3          1    2    3    0
 -5  ALL         1    2    0    0    1ALL
 -1         1-1.40819E+01-1.40819E+01 2.18363E+01
 -1         2-1.40819E+01 1.40819E+01 2.18363E+01
 -1         3-1.40819E+01 1.40819E+01-2.18363E+01
 -1         4-1.40819E+01-1.40819E+01-2.18363E+01
 -1         5 1.40819E+01-1.40819E+01 2.18363E+01
 -1         6 1.40819E+01 1.40819E+01 2.18363E+01
 -1         7 1.40819E+01 1.40819E+01-2.18363E+01
 -1         8 1.40819E+01-1.40819E+01-2.18363E+01
 -1         9 5.63275E+01-4.91666E-15-8.73451E+01
 -1        10 5.63275E+01-5.63275E+01-1.55431E-15
 -1        11 5.63275E+01 6.24893E-15 8.73451E+01
 -1        12 5.63275E+01 5.63275E+01 1.78191E-14
 -1        13-4.18527E-15 5.63275E+01-8.73451E+01
 -1        14 1.00414E-14-5.63275E+01-8.73451E+01
 -1        15 7.27811E-15-5.63275E+01 8.73451E+01
 -1        16 1.79829E-15 5.63275E+01 8.73451E+01
 -1        17-5.63275E+01 1.30488E-15-8.73451E+01
 -1        18-5.63275E+01-5.63275E+01 0.00000E+00
 -1        19-5.63275E+01 2.49428E-16 8.73451E+01
 -1        20-5.63275E+01 5.63275E+01-6.66134E-16
 -3
    1PSTEP                       315          63           1          
  100CL  163 89800.46724          20                     0   63           1
 -4  ERROR       1    1
 -5  STR(%)      1    1    0    0
 -1         1 2.21920E-14
 -1         2 2.21920E-14
 -1         3 2.21920E-14
 -1         4 2.21920E-14
 -1         5 2.21920E-14
 -1         6 2.21920E-14
 -1         7 2.21920E-14
 -1         8 2.21920E-14
 -1         9 2.21920E-14
 -1        10 2.21920E-14
 -1        11 2.21920E-14
 -1        12 2.21920E-14
 -1        13 2.21920E-14
 -1        14 2.21920E-14
 -1        15 2.21920E-14
 -1        16 2.21920E-14
 -1        17 2.21920E-14
 -1        18 2.21920E-14
 -1        19 2.21920E-14
 -1        20 2.21920E-14
 -3
    1PSTEP                       316          64           1          
  100CL  164 91359.49187          20                     0   64           1
 -4  DISP        4    1
 -5  D1          1    2    1    0
 -5  D2          1    2    2    0
 -5  D3          1    2    3    0
 -5  ALL         1    2    0    0    1ALL
 -1         1 0.00000E+00 0.00000E+00 0.00000E+00
 -1         2 0.00000E+00 0.00000E+00 0.00000E+00
 -1         3 0.00000E+00 0.00000E+00 2.00000E-03
 -1         4 0.00000E+00 0.00000E+00 2.00000E-03
 -1         5 0.00000E+00 0.00000E+00 0.00000E+00
 -1         6 0.00000E+00 0.00000E+00 0.00000E+00
 -1         7 0.00000E+00 0.00000E+00 2.00000E-03
 -1         8 0.00000E+00 0.00000E+00 2.00000E-03
 -1         9 0.00000E+00 0.00000E+00 0.00000E+00
 -1        10 0.00000E+00 0.00000E+00 1.00000E-03
 -1        11 0.00000E+00 0.00000E+00 2.00000E-03
 -1        12 0.00000E+00 0.00000E+00 1.00000E-03
 -1        13 0.00000E+00 0.00000E+00 0.00000E+00
 -1        14 0.00000E+00 0.00000E+00 0.00000E+00
 -1        15 0.00000E+00 0.00000E+00 2.00000E-03
 -1        16 0.00000E+00 0.00000E+00 2.00000E-03
 -1        17 0.00000E+00 0.00000E+00 0.00000E+00
 -1        18 0.00000E+00 0.00000E+00 1.00000E-03
 -1        19 0.00000E+00 0.00000E+00 2.00000E-03
 -1        20 0.00000E+00 0.00000E+00 1.00000E-03
 -3
    1PSTEP                       317          64           1          
  100CL  164 91359.49187          20                     0   64           1
 -4  STRESS      6    1
 -5  SXX         1    4    1    1
 -5  SYY         1    4    2    2
 -5  SZZ         1    4    3    3
 -5  SXY         1    4    1    2
 -5  SYZ         1    4    2    3
 -5  SZX         1    4    3    1
 -1         1 1.69169E+02 1.69169E+02 2.61638E+02 0.00000E+00 1.90747E-14 3.32472E-14
 -1         2 1.69169E+02 1.69169E+02 2.61638E+02 0.00000E+00-3.00001E-14-3.73911E-14
 -1         3 1.69169E+02 1.69169E+02 2.61638E+02 0.00000E+00-4.66591E-15-5.54147E-14
 -1         4 1.69169E+02 1.69169E+02 2.61638E+02 0.00000E+00-1.06743E-14 8.14383E-14
 -1         5 1.69169E+02 1.69169E+02 2.61638E+02 0.00000E+00 1.36934E-14-1.17082E-14
 -1         6 1.69169E+02 1.69169E+02 2.61638E+02 0.00000E+00-9.88800E-15 4.00784E-16
 -1         7 1.69169E+02 1.69169E+02 2.61638E+02 0.00000E+00 8.93423E-14 6.53363E-14
 -1         8 1.69169E+02 1.69169E+02 2.61638E+02 0.00000E+00-1.35702E-16-1.74084E-14
 -1         9 1.69184E+02 1.69184E+02 2.61662E+02 0.00000E+00-1.93637E-14-9.45969E-15
 -1        10 1.69184E+02 1.69184E+02 2.61662E+02 0.00000E+00 2.03628E-14 1.78125E-14
 -1        11 1.69184E+02 1.69184E+02 2.61662E+02 0.00000E+00 1.17717E-14 1.03461E-14
 -1        12 1.69184E+02 1.69184E+02 2.61662E+02 0.00000E+00 1.11927E-14 7.94274E-15
 -1        13 1.69184E+02 1.69184E+02 2.61662E+02 0.00000E+00-7.95752E-15-1.17159E-15
 -1        14 1.69184E+02 1.69184E+02 2.61662E+02 0.00000E+00 1.89644E-14 4.13414E-15
 -1        15 1.69184E+02 1.69184E+02 2.61662E+02 0.00000E+00-5.37993E-14 1.15254E-14
 -1        16 1.69184E+02 1.69184E+02 2.61662E+02 0.00000E+00 2.05824E-14 1.93265E-14
 -1        17 1.69184E+02 1.69184E+02 2.61662E+02 0.00000E+00-2.25041E-15 1.05192E-14
 -1        18 1.69184E+02 1.69184E+02 2.61662E+02 0.00000E+00 2.81808E-14-3.63031E-14
 -1        19 1.69184E+02 1.69184E+02 2.61662E+02 0.00000E+00 2.41856E-14-5.18367E-15
 -1        20 1.69184E+02 1.69184E+02 2.61662E+02 0.00000E+00 1.06553E-14 2.06659E-14
 -3
    1PSTEP                       318          64           1          
  100CL  164 91359.49187          20                     0   64           1
 -4  TOSTRAIN    6    1
 -5  EXX         1    4    1    1
 -5  EYY         1    4    2    2
 -5  EZZ         1    4    3    3
 -5  EXY         1    4    1    2
 -5  EYZ         1    4    2    3
 -5  EZX         1    4    3    1
 -1         1 0.00000E+00 0.00000E+00 1.99992E-03 0.00000E+00 4.12546E-19 7.19066E-19
 -1         2 0.00000E+00 0.00000E+00 1.99992E-03 0.00000E+00-6.48839E-19-8.08690E-19
 -1         3 0.00000E+00 0.00000E+00 1.99992E-03 0.00000E+00-1.00914E-19-1.19850E-18
 -1         4 0.00000E+00 0.00000E+00 1.99992E-03 0.00000E+00-2.30863E-19 1.76134E-18
 -1         5 0.00000E+00 0.00000E+00 1.99992E-03 0.00000E+00 2.96159E-19-2.53224E-19
 -1         6 0.00000E+00 0.00000E+00 1.99992E-03 0.00000E+00-2.13856E-19 8.66809E-21
 -1         7 0.00000E+00 0.00000E+00 1.99992E-03 0.00000E+00 1.93228E-18 1.41309E-18
 -1         8 0.00000E+00 0.00000E+00 1.99992E-03 0.00000E+00-2.93494E-21-3.76507E-19
 -1         9 0.00000E+00 0.00000E+00 2.00010E-03 0.00000E+00-4.18795E-19-2.04593E-19
 -1        10 0.00000E+00 0.00000E+00 2.00010E-03 0.00000E+00 4.40404E-19 3.85247E-19
 -1        11 0.00000E+00 0.00000E+00 2.00010E-03 0.00000E+00 2.54597E-19 2.23763E-19
 -1        12 0.00000E+00 0.00000E+00 2.00010E-03 0.00000E+00 2.42075E-19 1.71784E-19
 -1        13 0.00000E+00 0.00000E+00 2.00010E-03 0.00000E+00-1.72104E-19-2.53389E-20
 -1        14 0.00000E+00 0.00000E+00 2.00010E-03 0.00000E+00 4.10158E-19 8.94127E-20
 -1        15 0.00000E+00 0.00000E+00 2.00010E-03 0.00000E+00-1.16356E-18 2.49269E-19
 -1        16 0.00000E+00 0.00000E+00 2.00010E-03 0.00000E+00 4.45153E-19 4.17991E-19
 -1        17 0.00000E+00 0.00000E+00 2.00010E-03 0.00000E+00-4.86716E-20 2.27507E-19
 -1        18 0.00000E+00 0.00000E+00 2.00010E-03 0.00000E+00 6.09490E-19-7.85158E-19
 -1        19 0.00000E+00 0.00000E+00 2.00010E-03 0.00000E+00 5.23083E-19-1.12112E-19
 -1        20 0.00000E+00 0.00000E+00 2.00010E-03 0.00000E+00 2.30452E-19 4.46960E-19
 -3
    1PSTEP                       319          64           1          
  100CL  164 91359.49187          20                     0   64           1
 -4  FORC        4    1
 -5  F1          1    2    1    0
 -5  F2          1    2    2    0
 -5  F3          1    2    3    0
 -5  ALL         1    2    0    0    1ALL
 -1         1-1.40980E+01-1.40980E+01 2.18041E+01
 -1         2-1.40980E+01 1.40980E+01 2.18041E+01
 -1         3-1.40980E+01 1.40980E+01-2.18041E+01
 -1         4-1.40980E+01-1.40980E+01-2.18041E+01
 -1         5 1.40980E+01-1.40980E+01 2.18041E+01
 -1         6 1.40980E+01 1.40980E+01 2.18041E+01
 -1         7 1.40980E+01 1.40980E+01-2.18041E+01
 -1         8 1.40980E+01-1.40980E+01-2.18041E+01
 -1         9 5.63919E+01-9.57940E-15-8.72163E+01
 -1        10 5.63919E+01-5.63919E+01 5.77316E-15
 -1        11 5.63919E+01 7.80305E-15 8.72163E+01
 -1        12 5.63919E+01 5.63919E+01 2.52853E-14
 -1        13 2.19865E-15 5.63919E+01-8.72163E+01
 -1        14 1.55936E-14-5.63919E+01-8.72163E+01
 -1        15-5.15747E-15-5.63919E+01 8.72163E+01
 -1        16-5.97341E-15 5.63919E+01 8.72163E+01
 -1        17-5.63919E+01-1.35810E-15-8.72163E+01
 -1        18-5.63919E+01-5.63919E+01 1.77636E-15
 -1        19-5.63919E+01 5.57695E-15 8.72163E+01
 -1        20-5.63919E+01 5.63919E+01 7.10543E-15
 -3
    1PSTEP                       320          64           1          
  100CL  164 91359.49187          20                     0   64           1
 -4  ERROR       1    1
 -5  STR(%)      1    1    0    0
 -1         1 1.11124E-14
 -1         2 1.11124E-14
 -1         3 1.11124E-14
 -1         4 1.11124E-14
 -1         5 1.11124E-14
 -1         6 1.11124E-14
 -1         7 1.11124E-14
 -1         8 1.11124E-14
 -1         9 1.11124E-14
 -1        10 1.11124E-14
 -1        11 1.11124E-14
 -1        12 1.11124E-14
 -1        13 1.11124E-14
 -1        14 1.11124E-14
 -1        15 1.11124E-14
 -1        16 1.11124E-14
 -1        17 1.11124E-14
 -1        18 1.11124E-14
 -1        19 1.11124E-14
 -1        20 1.11124E-14
 -3
    1PSTEP                       321          65           1          
  100CL  165 93698.02881          20                     0   65           1
 -4  DISP        4    1
 -5  D1          1    2    1    0
 -5  D2          1    2    2    0
 -5  D3          1    2    3    0
 -5  ALL         1    2    0    0    1ALL
 -1         1 0.00000E+00 0.00000E+00 0.00000E+00
 -1         2 0.00000E+00 0.00000E+00 0.00000E+00
 -1         3 0.00000E+00 0.00000E+00 2.00000E-03
 -1         4 0.00000E+00 0.00000E+00 2.00000E-03
 -1         5 0.00000E+00 0.00000E+00 0.00000E+00
 -1         6 0.00000E+00 0.00000E+00 0.00000E+00
 -1         7 0.00000E+00 0.00000E+00 2.00000E-03
 -1         8 0.00000E+00 0.00000E+00 2.00000E-03
 -1         9 0.00000E+00 0.00000E+00 0.00000E+00
 -1        10 0.00000E+00 0.00000E+00 1.00000E-03
 -1        11 0.00000E+00 0.00000E+00 2.00000E-03
 -1        12 0.00000E+00 0.00000E+00 1.00000E-03
 -1        13 0.00000E+00 0.00000E+00 0.00000E+00
 -1        14 0.00000E+00 0.00000E+00 0.00000E+00
 -1        15 0.00000E+00 0.00000E+00 2.00000E-03
 -1        16 0.00000E+00 0.00000E+00 2.00000E-03
 -1        17 0.00000E+00 0.00000E+00 0.00000E+00
 -1        18 0.00000E+00 0.00000E+00 1.00000E-03
 -1        19 0.00000E+00 0.00000E+00 2.00000E-03
 -1        20 0.00000E+00 0.00000E+00 1.00000E-03
 -3
    1PSTEP                       322          65           1          
  100CL  165 93698.02881          20                     0   65           1
 -4  STRESS      6    1
 -5  SXX         1    4    1    1
 -5  SYY         1    4    2    2
 -5  SZZ         1    4    3    3
 -5  SXY         1    4    1    2
 -5  SYZ         1    4    2    3
 -5  SZX         1    4    3    1
 -1         1 1.69456E+02 1.69456E+02 2.61064E+02 0.00000E+00 1.88971E-14 3.29376E-14
 -1         2 1.69456E+02 1.69456E+02 2.61064E+02 0.00000E+00-2.97208E-14-3.70429E-14
 -1         3 1.69456E+02 1.69456E+02 2.61064E+02 0.00000E+00-4.62246E-15-5.48987E-14
 -1         4 1.69456E+02 1.69456E+02 2.61064E+02 0.00000E+00-1.05749E-14 8.06800E-14
 -1         5 1.69456E+02 1.69456E+02 2.61064E+02 0.00000E+00 1.35659E-14-1.15992E-14
 -1         6 1.69456E+02 1.69456E+02 2.61064E+02 0.00000E+00-9.79592E-15 3.97051E-16
 -1         7 1.69456E+02 1.69456E+02 2.61064E+02 0.00000E+00 8.85103E-14 6.47279E-14
 -1         8 1.69456E+02 1.69456E+02 2.61064E+02 0.00000E+00-1.34438E-16-1.72463E-14
 -1         9 1.69471E+02 1.69471E+02 2.61088E+02 0.00000E+00-1.91834E-14-9.37160E-15
 -1        10 1.69471E+02 1.69471E+02 2.61088E+02 0.00000E+00 2.01732E-14 1.76467E-14
 -1        11 1.69471E+02 1.69471E+02 2.61088E+02 0.00000E+00 1.16621E-14 1.02497E-14
 -1        12 1.69471E+02 1.69471E+02 2.61088E+02 0.00000E+00 1.10885E-14 7.86878E-15
 -1        13 1.69471E+02 1.69471E+02 2.61088E+02 0.00000E+00-7.88342E-15-1.16068E-15
 -1        14 1.69471E+02 1.69471E+02 2.61088E+02 0.00000E+00 1.87878E-14 4.09565E-15
 -1        15 1.69471E+02 1.69471E+02 2.61088E+02 0.00000E+00-5.32984E-14 1.14180E-14
 -1        16 1.69471E+02 1.69471E+02 2.61088E+02 0.00000E+00 2.03907E-14 1.91465E-14
 -1        17 1.69471E+02 1.69471E+02 2.61088E+02 0.00000E+00-2.22946E-15 1.04212E-14
 -1        18 1.69471E+02 1.69471E+02 2.61088E+02 0.00000E+00 2.79184E-14-3.59650E-14
 -1        19 1.69471E+02 1.69471E+02 2.61088E+02 0.00000E+00 2.39604E-14-5.13540E-15
 -1        20 1.69471E+02 1.69471E+02 2.61088E+02 0.00000E+00 1.05561E-14 2.04735E-14
 -3
    1PSTEP                       323          65           1          
  100CL  165 93698.02881          20                     0   65           1
 -4  TOSTRAIN    6    1
 -5  EXX         1    4    1    1
 -5  EYY         1    4    2    2
 -5  EZZ         1    4    3    3
 -5  EXY         1    4    1    2
 -5  EYZ         1    4    2    3
 -5  EZX         1    4    3    1
 -1         1 0.00000E+00 0.00000E+00 1.99992E-03 0.00000E+00 4.12546E-19 7.19066E-19
 -1         2 0.00000E+00 0.00000E+00 1.99992E-03 0.00000E+00-6.48839E-19-8.08690E-19
 -1         3 0.00000E+00 0.00000E+00 1.99992E-03 0.00000E+00-1.00914E-19-1.19850E-18
 -1         4 0.00000E+00 0.00000E+00 1.99992E-03 0.00000E+00-2.30863E-19 1.76134E-18
 -1         5 0.00000E+00 0.00000E+00 1.99992E-03 0.00000E+00 2.96159E-19-2.53224E-19
 -1         6 0.00000E+00 0.00000E+00 1.99992E-03 0.00000E+00-2.13856E-19 8.66809E-21
 -1         7 0.00000E+00 0.00000E+00 1.99992E-03 0.00000E+00 1.93228E-18 1.41309E-18
 -1         8 0.00000E+00 0.00000E+00 1.99992E-03 0.00000E+00-2.93494E-21-3.76507E-19
 -1         9 0.00000E+00 0.00000E+00 2.00010E-03 0.00000E+00-4.18795E-19-2.04593E-19
 -1        10 0.00000E+00 0.00000E+00 2.00010E-03 0.00000E+00 4.40404E-19 3.85247E-19
 -1        11 0.00000E+00 0.00000E+00 2.00010E-03 0.00000E+00 2.54597E-19 2.23763E-19
 -1        12 0.00000E+00 0.00000E+00 2.00010E-03 0.00000E+00 2.42075E-19 1.71784E-19
 -1        13 0.00000E+00 0.00000E+00 2.00010E-03 0.00000E+00-1.72104E-19-2.53389E-20
 -1        14 0.00000E+00 0.00000E+00 2.00010E-03 0.00000E+00 4.10158E-19 8.94127E-20
 -1        15 0.00000E+00 0.00000E+00 2.00010E-03 0.00000E+00-1.16356E-18 2.49269E-19
 -1        16 0.00000E+00 0.00000E+00 2.00010E-03 0.00000E+00 4.45153E-19 4.17991E-19
 -1        17 0.00000E+00 0.00000E+00 2.00010E-03 0.00000E+00-4.86716E-20 2.27507E-19
 -1        18 0.00000E+00 0.00000E+00 2.00010E-03 0.00000E+00 6.09490E-19-7.85158E-19
 -1        19 0.00000E+00 0.00000E+00 2.00010E-03 0.00000E+00 5.23083E-19-1.12112E-19
 -1        20 0.00000E+00 0.00000E+00 2.00010E-03 0.00000E+00 2.30452E-19 4.46960E-19
 -3
    1PSTEP                       324          65           1          
  100CL  165 93698.02881          20                     0   65           1
 -4  FORC        4    1
 -5  F1          1    2    1    0
 -5  F2          1    2    2    0
 -5  F3          1    2    3    0
 -5  ALL         1    2    0    0    1ALL
 -1         1-1.41219E+01-1.41219E+01 2.17562E+01
 -1         2-1.41219E+01 1.41219E+01 2.17562E+01
 -1         3-1.41219E+01 1.41219E+01-2.17562E+01
 -1         4-1.41219E+01-1.41219E+01-2.17562E+01
 -1         5 1.41219E+01-1.41219E+01 2.17562E+01
 -1         6 1.41219E+01 1.41219E+01 2.17562E+01
 -1         7 1.41219E+01 1.41219E+01-2.17562E+01
 -1         8 1.41219E+01-1.41219E+01-2.17562E+01
 -1         9 5.64875E+01-6.69253E-15-8.70249E+01
 -1        10 5.64875E+01-5.64875E+01 1.33227E-15
 -1        11 5.64875E+01 4.25004E-15 8.70249E+01
 -1        12 5.64875E+01 5.64875E+01 1.29341E-14
 -1        13-4.62902E-15 5.64875E+01-8.70249E+01
 -1        14 7.82360E-15-5.64875E+01-8.70249E+01
 -1        15 1.94636E-15-5.64875E+01 8.70249E+01
 -1        16-1.31067E-15 5.64875E+01 8.70249E+01
 -1        17-5.64875E+01-4.67611E-16-8.70249E+01
 -1        18-5.64875E+01-5.64875E+01-1.77636E-15
 -1        19-5.64875E+01-1.53079E-15 8.70249E+01
 -1        20-5.64875E+01 5.64875E+01-5.10703E-15
 -3
    1PSTEP                       325          65           1          
  100CL  165 93698.02881          20                     0   65           1
 -4  ERROR       1    1
 -5  STR(%)      1    1    0    0
 -1         1 2.11599E-14
 -1         2 2.11599E-14
 -1         3 2.11599E-14
 -1         4 2.11599E-14
 -1         5 2.11599E-14
 -1         6 2.11599E-14
 -1         7 2.11599E-14
 -1         8 2.11599E-14
 -1         9 2.11599E-14
 -1        10 2.11599E-14
 -1        11 2.11599E-14
 -1        12 2.11599E-14
 -1        13 2.11599E-14
 -1        14 2.11599E-14
 -1        15 2.11599E-14
 -1        16 2.11599E-14
 -1        17 2.11599E-14
 -1        18 2.11599E-14
 -1        19 2.11599E-14
 -1        20 2.11599E-14
 -3
    1PSTEP                       326          66           1          
  100CL  166 95358.33499          20                     0   66           1
 -4  DISP        4    1
 -5  D1          1    2    1    0
 -5  D2          1    2    2    0
 -5  D3          1    2    3    0
 -5  ALL         1    2    0    0    1ALL
 -1         1 0.00000E+00 0.00000E+00 0.00000E+00
 -1         2 0.00000E+00 0.00000E+00 0.00000E+00
 -1         3 0.00000E+00 0.00000E+00 2.00000E-03
 -1         4 0.00000E+00 0.00000E+00 2.00000E-03
 -1         5 0.00000E+00 0.00000E+00 0.00000E+00
 -1         6 0.00000E+00 0.00000E+00 0.00000E+00
 -1         7 0.00000E+00 0.00000E+00 2.00000E-03
 -1         8 0.00000E+00 0.00000E+00 2.00000E-03
 -1         9 0.00000E+00 0.00000E+00 0.00000E+00
 -1        10 0.00000E+00 0.00000E+00 1.00000E-03
 -1        11 0.00000E+00 0.00000E+00 2.00000E-03
 -1        12 0.00000E+00 0.00000E+00 1.00000E-03
 -1        13 0.00000E+00 0.00000E+00 0.00000E+00
 -1        14 0.00000E+00 0.00000E+00 0.00000E+00
 -1        15 0.00000E+00 0.00000E+00 2.00000E-03
 -1        16 0.00000E+00 0.00000E+00 2.00000E-03
 -1        17 0.00000E+00 0.00000E+00 0.00000E+00
 -1        18 0.00000E+00 0.00000E+00 1.00000E-03
 -1        19 0.00000E+00 0.00000E+00 2.00000E-03
 -1        20 0.00000E+00 0.00000E+00 1.00000E-03
 -3
    1PSTEP                       327          66           1          
  100CL  166 95358.33499          20                     0   66           1
 -4  STRESS      6    1
 -5  SXX         1    4    1    1
 -5  SYY         1    4    2    2
 -5  SZZ         1    4    3    3
 -5  SXY         1    4    1    2
 -5  SYZ         1    4    2    3
 -5  SZX         1    4    3    1
 -1         1 1.69658E+02 1.69658E+02 2.60659E+02 0.00000E+00 1.87718E-14 3.27192E-14
 -1         2 1.69658E+02 1.69658E+02 2.60659E+02 0.00000E+00-2.95237E-14-3.67973E-14
 -1         3 1.69658E+02 1.69658E+02 2.60659E+02 0.00000E+00-4.59182E-15-5.45348E-14
 -1         4 1.69658E+02 1.69658E+02 2.60659E+02 0.00000E+00-1.05048E-14 8.01451E-14
 -1         5 1.69658E+02 1.69658E+02 2.60659E+02 0.00000E+00 1.34759E-14-1.15223E-14
 -1         6 1.69658E+02 1.69658E+02 2.60659E+02 0.00000E+00-9.73098E-15 3.94419E-16
 -1         7 1.69658E+02 1.69658E+02 2.60659E+02 0.00000E+00 8.79236E-14 6.42988E-14
 -1         8 1.69658E+02 1.69658E+02 2.60659E+02 0.00000E+00-1.33547E-16-1.71320E-14
 -1         9 1.69674E+02 1.69674E+02 2.60683E+02 0.00000E+00-1.90562E-14-9.30948E-15
 -1        10 1.69674E+02 1.69674E+02 2.60683E+02 0.00000E+00 2.00395E-14 1.75297E-14
 -1        11 1.69674E+02 1.69674E+02 2.60683E+02 0.00000E+00 1.15848E-14 1.01818E-14
 -1        12 1.69674E+02 1.69674E+02 2.60683E+02 0.00000E+00 1.10150E-14 7.81661E-15
 -1        13 1.69674E+02 1.69674E+02 2.60683E+02 0.00000E+00-7.83116E-15-1.15298E-15
 -1        14 1.69674E+02 1.69674E+02 2.60683E+02 0.00000E+00 1.86632E-14 4.06850E-15
 -1        15 1.69674E+02 1.69674E+02 2.60683E+02 0.00000E+00-5.29450E-14 1.13423E-14
 -1        16 1.69674E+02 1.69674E+02 2.60683E+02 0.00000E+00 2.02555E-14 1.90196E-14
 -1        17 1.69674E+02 1.69674E+02 2.60683E+02 0.00000E+00-2.21468E-15 1.03521E-14
 -1        18 1.69674E+02 1.69674E+02 2.60683E+02 0.00000E+00 2.77333E-14-3.57266E-14
 -1        19 1.69674E+02 1.69674E+02 2.60683E+02 0.00000E+00 2.38016E-14-5.10135E-15
 -1        20 1.69674E+02 1.69674E+02 2.60683E+02 0.00000E+00 1.04861E-14 2.03378E-14
 -3
    1PSTEP                       328          66           1          
  100CL  166 95358.33499          20                     0   66           1
 -4  TOSTRAIN    6    1
 -5  EXX         1    4    1    1
 -5  EYY         1    4    2    2
 -5  EZZ         1    4    3    3
 -5  EXY         1    4    1    2
 -5  EYZ         1    4    2    3
 -5  EZX         1    4    3    1
 -1         1 0.00000E+00 0.00000E+00 1.99992E-03 0.00000E+00 4.12546E-19 7.19066E-19
 -1         2 0.00000E+00 0.00000E+00 1.99992E-03 0.00000E+00-6.48839E-19-8.08690E-19
 -1         3 0.00000E+00 0.00000E+00 1.99992E-03 0.00000E+00-1.00914E-19-1.19850E-18
 -1         4 0.00000E+00 0.00000E+00 1.99992E-03 0.00000E+00-2.30863E-19 1.76134E-18
 -1         5 0.00000E+00 0.00000E+00 1.99992E-03 0.00000E+00 2.96159E-19-2.53224E-19
 -1         6 0.00000E+00 0.00000E+00 1.99992E-03 0.00000E+00-2.13856E-19 8.66809E-21
 -1         7 0.00000E+00 0.00000E+00 1.99992E-03 0.00000E+00 1.93228E-18 1.41309E-18
 -1         8 0.00000E+00 0.00000E+00 1.99992E-03 0.00000E+00-2.93494E-21-3.76507E-19
 -1         9 0.00000E+00 0.00000E+00 2.00010E-03 0.00000E+00-4.18795E-19-2.04593E-19
 -1        10 0.00000E+00 0.00000E+00 2.00010E-03 0.00000E+00 4.40404E-19 3.85247E-19
 -1        11 0.00000E+00 0.00000E+00 2.00010E-03 0.00000E+00 2.54597E-19 2.23763E-19
 -1        12 0.00000E+00 0.00000E+00 2.00010E-03 0.00000E+00 2.42075E-19 1.71784E-19
 -1        13 0.00000E+00 0.00000E+00 2.00010E-03 0.00000E+00-1.72104E-19-2.53389E-20
 -1        14 0.00000E+00 0.00000E+00 2.00010E-03 0.00000E+00 4.10158E-19 8.94127E-20
 -1        15 0.00000E+00 0.00000E+00 2.00010E-03 0.00000E+00-1.16356E-18 2.49269E-19
 -1        16 0.00000E+00 0.00000E+00 2.00010E-03 0.00000E+00 4.45153E-19 4.17991E-19
 -1        17 0.00000E+00 0.00000E+00 2.00010E-03 0.00000E+00-4.86716E-20 2.27507E-19
 -1        18 0.00000E+00 0.00000E+00 2.00010E-03 0.00000E+00 6.09490E-19-7.85158E-19
 -1        19 0.00000E+00 0.00000E+00 2.00010E-03 0.00000E+00 5.23083E-19-1.12112E-19
 -1        20 0.00000E+00 0.00000E+00 2.00010E-03 0.00000E+00 2.30452E-19 4.46960E-19
 -3
    1PSTEP                       329          66           1          
  100CL  166 95358.33499          20                     0   66           1
 -4  FORC        4    1
 -5  F1          1    2    1    0
 -5  F2          1    2    2    0
 -5  F3          1    2    3    0
 -5  ALL         1    2    0    0    1ALL
 -1         1-1.41388E+01-1.41388E+01 2.17225E+01
 -1         2-1.41388E+01 1.41388E+01 2.17225E+01
 -1         3-1.41388E+01 1.41388E+01-2.17225E+01
 -1         4-1.41388E+01-1.41388E+01-2.17225E+01
 -1         5 1.41388E+01-1.41388E+01 2.17225E+01
 -1         6 1.41388E+01 1.41388E+01 2.17225E+01
 -1         7 1.41388E+01 1.41388E+01-2.17225E+01
 -1         8 1.41388E+01-1.41388E+01-2.17225E+01
 -1         9 5.65550E+01-7.16417E-15-8.68900E+01
 -1        10 5.65550E+01-5.65550E+01-2.44249E-15
 -1        11 5.65550E+01 8.69072E-15 8.68900E+01
 -1        12 5.65550E+01 5.65550E+01 1.33782E-14
 -1        13 5.66844E-15 5.65550E+01-8.68900E+01
 -1        14 1.44861E-14-5.65550E+01-8.68900E+01
 -1        15 3.72159E-15-5.65550E+01 8.68900E+01
 -1        16 3.35212E-15 5.65550E+01 8.68900E+01
 -1        17-5.65550E+01-2.24234E-15-8.68900E+01
 -1        18-5.65550E+01-5.65550E+01-1.77636E-15
 -1        19-5.65550E+01 2.43939E-16 8.68900E+01
 -1        20-5.65550E+01 5.65550E+01 8.88178E-16
 -3
    1PSTEP                       330          66           1          
  100CL  166 95358.33499          20                     0   66           1
 -4  ERROR       1    1
 -5  STR(%)      1    1    0    0
 -1         1 1.45003E-14
 -1         2 1.45003E-14
 -1         3 1.45003E-14
 -1         4 1.45003E-14
 -1         5 1.45003E-14
 -1         6 1.45003E-14
 -1         7 1.45003E-14
 -1         8 1.45003E-14
 -1         9 1.45003E-14
 -1        10 1.45003E-14
 -1        11 1.45003E-14
 -1        12 1.45003E-14
 -1        13 1.45003E-14
 -1        14 1.45003E-14
 -1        15 1.45003E-14
 -1        16 1.45003E-14
 -1        17 1.45003E-14
 -1        18 1.45003E-14
 -1        19 1.45003E-14
 -1        20 1.45003E-14
 -3
    1PSTEP                       331          67           1          
  100CL  167 97018.64117          20                     0   67           1
 -4  DISP        4    1
 -5  D1          1    2    1    0
 -5  D2          1    2    2    0
 -5  D3          1    2    3    0
 -5  ALL         1    2    0    0    1ALL
 -1         1 0.00000E+00 0.00000E+00 0.00000E+00
 -1         2 0.00000E+00 0.00000E+00 0.00000E+00
 -1         3 0.00000E+00 0.00000E+00 2.00000E-03
 -1         4 0.00000E+00 0.00000E+00 2.00000E-03
 -1         5 0.00000E+00 0.00000E+00 0.00000E+00
 -1         6 0.00000E+00 0.00000E+00 0.00000E+00
 -1         7 0.00000E+00 0.00000E+00 2.00000E-03
 -1         8 0.00000E+00 0.00000E+00 2.00000E-03
 -1         9 0.00000E+00 0.00000E+00 0.00000E+00
 -1        10 0.00000E+00 0.00000E+00 1.00000E-03
 -1        11 0.00000E+00 0.00000E+00 2.00000E-03
 -1        12 0.00000E+00 0.00000E+00 1.00000E-03
 -1        13 0.00000E+00 0.00000E+00 0.00000E+00
 -1        14 0.00000E+00 0.00000E+00 0.00000E+00
 -1        15 0.00000E+00 0.00000E+00 2.00000E-03
 -1        16 0.00000E+00 0.00000E+00 2.00000E-03
 -1        17 0.00000E+00 0.00000E+00 0.00000E+00
 -1        18 0.00000E+00 0.00000E+00 1.00000E-03
 -1        19 0.00000E+00 0.00000E+00 2.00000E-03
 -1        20 0.00000E+00 0.00000E+00 1.00000E-03
 -3
    1PSTEP                       332          67           1          
  100CL  167 97018.64117          20                     0   67           1
 -4  STRESS      6    1
 -5  SXX         1    4    1    1
 -5  SYY         1    4    2    2
 -5  SZZ         1    4    3    3
 -5  SXY         1    4    1    2
 -5  SYZ         1    4    2    3
 -5  SZX         1    4    3    1
 -1         1 1.69859E+02 1.69859E+02 2.60257E+02 0.00000E+00 1.86474E-14 3.25023E-14
 -1         2 1.69859E+02 1.69859E+02 2.60257E+02 0.00000E+00-2.93280E-14-3.65534E-14
 -1         3 1.69859E+02 1.69859E+02 2.60257E+02 0.00000E+00-4.56138E-15-5.41732E-14
 -1         4 1.69859E+02 1.69859E+02 2.60257E+02 0.00000E+00-1.04352E-14 7.96138E-14
 -1         5 1.69859E+02 1.69859E+02 2.60257E+02 0.00000E+00 1.33866E-14-1.14459E-14
 -1         6 1.69859E+02 1.69859E+02 2.60257E+02 0.00000E+00-9.66647E-15 3.91805E-16
 -1         7 1.69859E+02 1.69859E+02 2.60257E+02 0.00000E+00 8.73407E-14 6.38726E-14
 -1         8 1.69859E+02 1.69859E+02 2.60257E+02 0.00000E+00-1.32661E-16-1.70184E-14
 -1         9 1.69875E+02 1.69875E+02 2.60281E+02 0.00000E+00-1.89299E-14-9.24776E-15
 -1        10 1.69875E+02 1.69875E+02 2.60281E+02 0.00000E+00 1.99066E-14 1.74135E-14
 -1        11 1.69875E+02 1.69875E+02 2.60281E+02 0.00000E+00 1.15080E-14 1.01143E-14
 -1        12 1.69875E+02 1.69875E+02 2.60281E+02 0.00000E+00 1.09420E-14 7.76479E-15
 -1        13 1.69875E+02 1.69875E+02 2.60281E+02 0.00000E+00-7.77924E-15-1.14534E-15
 -1        14 1.69875E+02 1.69875E+02 2.60281E+02 0.00000E+00 1.85395E-14 4.04152E-15
 -1        15 1.69875E+02 1.69875E+02 2.60281E+02 0.00000E+00-5.25941E-14 1.12672E-14
 -1        16 1.69875E+02 1.69875E+02 2.60281E+02 0.00000E+00 2.01213E-14 1.88935E-14
 -1        17 1.69875E+02 1.69875E+02 2.60281E+02 0.00000E+00-2.19999E-15 1.02835E-14
 -1        18 1.69875E+02 1.69875E+02 2.60281E+02 0.00000E+00 2.75494E-14-3.54898E-14
 -1        19 1.69875E+02 1.69875E+02 2.60281E+02 0.00000E+00 2.36438E-14-5.06754E-15
 -1        20 1.69875E+02 1.69875E+02 2.60281E+02 0.00000E+00 1.04166E-14 2.02029E-14
 -3
    1PSTEP                       333          67           1          
  100CL  167 97018.64117          20                     0   67           1
 -4  TOSTRAIN    6    1
 -5  EXX         1    4    1    1
 -5  EYY         1    4    2    2
 -5  EZZ         1    4    3    3
 -5  EXY         1    4    1    2
 -5  EYZ         1    4    2    3
 -5  EZX         1    4    3    1
 -1         1 0.00000E+00 0.00000E+00 1.99992E-03 0.00000E+00 4.12546E-19 7.19066E-19
 -1         2 0.00000E+00 0.00000E+00 1.99992E-03 0.00000E+00-6.48839E-19-8.08690E-19
 -1         3 0.00000E+00 0.00000E+00 1.99992E-03 0.00000E+00-1.00914E-19-1.19850E-18
 -1         4 0.00000E+00 0.00000E+00 1.99992E-03 0.00000E+00-2.30863E-19 1.76134E-18
 -1         5 0.00000E+00 0.00000E+00 1.99992E-03 0.00000E+00 2.96159E-19-2.53224E-19
 -1         6 0.00000E+00 0.00000E+00 1.99992E-03 0.00000E+00-2.13856E-19 8.66809E-21
 -1         7 0.00000E+00 0.00000E+00 1.99992E-03 0.00000E+00 1.93228E-18 1.41309E-18
 -1         8 0.00000E+00 0.00000E+00 1.99992E-03 0.00000E+00-2.93494E-21-3.76507E-19
 -1         9 0.00000E+00 0.00000E+00 2.00010E-03 0.00000E+00-4.18795E-19-2.04593E-19
 -1        10 0.00000E+00 0.00000E+00 2.00010E-03 0.00000E+00 4.40404E-19 3.85247E-19
 -1        11 0.00000E+00 0.00000E+00 2.00010E-03 0.00000E+00 2.54597E-19 2.23763E-19
 -1        12 0.00000E+00 0.00000E+00 2.00010E-03 0.00000E+00 2.42075E-19 1.71784E-19
 -1        13 0.00000E+00 0.00000E+00 2.00010E-03 0.00000E+00-1.72104E-19-2.53389E-20
 -1        14 0.00000E+00 0.00000E+00 2.00010E-03 0.00000E+00 4.10158E-19 8.94127E-20
 -1        15 0.00000E+00 0.00000E+00 2.00010E-03 0.00000E+00-1.16356E-18 2.49269E-19
 -1        16 0.00000E+00 0.00000E+00 2.00010E-03 0.00000E+00 4.45153E-19 4.17991E-19
 -1        17 0.00000E+00 0.00000E+00 2.00010E-03 0.00000E+00-4.86716E-20 2.27507E-19
 -1        18 0.00000E+00 0.00000E+00 2.00010E-03 0.00000E+00 6.09490E-19-7.85158E-19
 -1        19 0.00000E+00 0.00000E+00 2.00010E-03 0.00000E+00 5.23083E-19-1.12112E-19
 -1        20 0.00000E+00 0.00000E+00 2.00010E-03 0.00000E+00 2.30452E-19 4.46960E-19
 -3
    1PSTEP                       334          67           1          
  100CL  167 97018.64117          20                     0   67           1
 -4  FORC        4    1
 -5  F1          1    2    1    0
 -5  F2          1    2    2    0
 -5  F3          1    2    3    0
 -5  ALL         1    2    0    0    1ALL
 -1         1-1.41555E+01-1.41555E+01 2.16890E+01
 -1         2-1.41555E+01 1.41555E+01 2.16890E+01
 -1         3-1.41555E+01 1.41555E+01-2.16890E+01
 -1         4-1.41555E+01-1.41555E+01-2.16890E+01
 -1         5 1.41555E+01-1.41555E+01 2.16890E+01
 -1         6 1.41555E+01 1.41555E+01 2.16890E+01
 -1         7 1.41555E+01 1.41555E+01-2.16890E+01
 -1         8 1.41555E+01-1.41555E+01-2.16890E+01
 -1         9 5.66220E+01-8.66276E-15-8.67559E+01
 -1        10 5.66220E+01-5.66220E+01 3.33067E-15
 -1        11 5.66220E+01 5.13780E-15 8.67559E+01
 -1        12 5.66220E+01 5.66220E+01 1.84852E-14
 -1        13-1.47318E-14 5.66220E+01-8.67559E+01
 -1        14 2.49677E-15-5.66220E+01-8.67559E+01
 -1        15 5.49683E-15-5.66220E+01 8.67559E+01
 -1        16 7.57083E-15 5.66220E+01 8.67559E+01
 -1        17-5.66220E+01-2.24072E-15-8.67559E+01
 -1        18-5.66220E+01-5.66220E+01 0.00000E+00
 -1        19-5.66220E+01 2.42321E-16 8.67559E+01
 -1        20-5.66220E+01 5.66220E+01 2.22045E-15
 -3
    1PSTEP                       335          67           1          
  100CL  167 97018.64117          20                     0   67           1
 -4  ERROR       1    1
 -5  STR(%)      1    1    0    0
 -1         1 2.68112E-14
 -1         2 2.68112E-14
 -1         3 2.68112E-14
 -1         4 2.68112E-14
 -1         5 2.68112E-14
 -1         6 2.68112E-14
 -1         7 2.68112E-14
 -1         8 2.68112E-14
 -1         9 2.68112E-14
 -1        10 2.68112E-14
 -1        11 2.68112E-14
 -1        12 2.68112E-14
 -1        13 2.68112E-14
 -1        14 2.68112E-14
 -1        15 2.68112E-14
 -1        16 2.68112E-14
 -1        17 2.68112E-14
 -1        18 2.68112E-14
 -1        19 2.68112E-14
 -1        20 2.68112E-14
 -3
    1PSTEP                       336          68           1          
  100CL  168 99509.10044          20                     0   68           1
 -4  DISP        4    1
 -5  D1          1    2    1    0
 -5  D2          1    2    2    0
 -5  D3          1    2    3    0
 -5  ALL         1    2    0    0    1ALL
 -1         1 0.00000E+00 0.00000E+00 0.00000E+00
 -1         2 0.00000E+00 0.00000E+00 0.00000E+00
 -1         3 0.00000E+00 0.00000E+00 2.00000E-03
 -1         4 0.00000E+00 0.00000E+00 2.00000E-03
 -1         5 0.00000E+00 0.00000E+00 0.00000E+00
 -1         6 0.00000E+00 0.00000E+00 0.00000E+00
 -1         7 0.00000E+00 0.00000E+00 2.00000E-03
 -1         8 0.00000E+00 0.00000E+00 2.00000E-03
 -1         9 0.00000E+00 0.00000E+00 0.00000E+00
 -1        10 0.00000E+00 0.00000E+00 1.00000E-03
 -1        11 0.00000E+00 0.00000E+00 2.00000E-03
 -1        12 0.00000E+00 0.00000E+00 1.00000E-03
 -1        13 0.00000E+00 0.00000E+00 0.00000E+00
 -1        14 0.00000E+00 0.00000E+00 0.00000E+00
 -1        15 0.00000E+00 0.00000E+00 2.00000E-03
 -1        16 0.00000E+00 0.00000E+00 2.00000E-03
 -1        17 0.00000E+00 0.00000E+00 0.00000E+00
 -1        18 0.00000E+00 0.00000E+00 1.00000E-03
 -1        19 0.00000E+00 0.00000E+00 2.00000E-03
 -1        20 0.00000E+00 0.00000E+00 1.00000E-03
 -3
    1PSTEP                       337          68           1          
  100CL  168 99509.10044          20                     0   68           1
 -4  STRESS      6    1
 -5  SXX         1    4    1    1
 -5  SYY         1    4    2    2
 -5  SZZ         1    4    3    3
 -5  SXY         1    4    1    2
 -5  SYZ         1    4    2    3
 -5  SZX         1    4    3    1
 -1         1 1.70158E+02 1.70158E+02 2.59660E+02 0.00000E+00 1.84626E-14 3.21802E-14
 -1         2 1.70158E+02 1.70158E+02 2.59660E+02 0.00000E+00-2.90374E-14-3.61911E-14
 -1         3 1.70158E+02 1.70158E+02 2.59660E+02 0.00000E+00-4.51617E-15-5.36363E-14
 -1         4 1.70158E+02 1.70158E+02 2.59660E+02 0.00000E+00-1.03318E-14 7.88248E-14
 -1         5 1.70158E+02 1.70158E+02 2.59660E+02 0.00000E+00 1.32539E-14-1.13325E-14
 -1         6 1.70158E+02 1.70158E+02 2.59660E+02 0.00000E+00-9.57067E-15 3.87922E-16
 -1         7 1.70158E+02 1.70158E+02 2.59660E+02 0.00000E+00 8.64751E-14 6.32396E-14
 -1         8 1.70158E+02 1.70158E+02 2.59660E+02 0.00000E+00-1.31347E-16-1.68497E-14
 -1         9 1.70173E+02 1.70173E+02 2.59683E+02 0.00000E+00-1.87423E-14-9.15611E-15
 -1        10 1.70173E+02 1.70173E+02 2.59683E+02 0.00000E+00 1.97093E-14 1.72409E-14
 -1        11 1.70173E+02 1.70173E+02 2.59683E+02 0.00000E+00 1.13939E-14 1.00140E-14
 -1        12 1.70173E+02 1.70173E+02 2.59683E+02 0.00000E+00 1.08335E-14 7.68784E-15
 -1        13 1.70173E+02 1.70173E+02 2.59683E+02 0.00000E+00-7.70214E-15-1.13399E-15
 -1        14 1.70173E+02 1.70173E+02 2.59683E+02 0.00000E+00 1.83557E-14 4.00147E-15
 -1        15 1.70173E+02 1.70173E+02 2.59683E+02 0.00000E+00-5.20728E-14 1.11555E-14
 -1        16 1.70173E+02 1.70173E+02 2.59683E+02 0.00000E+00 1.99218E-14 1.87063E-14
 -1        17 1.70173E+02 1.70173E+02 2.59683E+02 0.00000E+00-2.17819E-15 1.01816E-14
 -1        18 1.70173E+02 1.70173E+02 2.59683E+02 0.00000E+00 2.72764E-14-3.51380E-14
 -1        19 1.70173E+02 1.70173E+02 2.59683E+02 0.00000E+00 2.34094E-14-5.01731E-15
 -1        20 1.70173E+02 1.70173E+02 2.59683E+02 0.00000E+00 1.03134E-14 2.00027E-14
 -3
    1PSTEP                       338          68           1          
  100CL  168 99509.10044          20                     0   68           1
 -4  TOSTRAIN    6    1
 -5  EXX         1    4    1    1
 -5  EYY         1    4    2    2
 -5  EZZ         1    4    3    3
 -5  EXY         1    4    1    2
 -5  EYZ         1    4    2    3
 -5  EZX         1    4    3    1
 -1         1 0.00000E+00 0.00000E+00 1.99992E-03 0.00000E+00 4.12546E-19 7.19066E-19
 -1         2 0.00000E+00 0.00000E+00 1.99992E-03 0.00000E+00-6.48839E-19-8.08690E-19
 -1         3 0.00000E+00 0.00000E+00 1.99992E-03 0.00000E+00-1.00914E-19-1.19850E-18
 -1         4 0.00000E+00 0.00000E+00 1.99992E-03 0.00000E+00-2.30863E-19 1.76134E-18
 -1         5 0.00000E+00 0.00000E+00 1.99992E-03 0.00000E+00 2.96159E-19-2.53224E-19
 -1         6 0.00000E+00 0.00000E+00 1.99992E-03 0.00000E+00-2.13856E-19 8.66809E-21
 -1         7 0.00000E+00 0.00000E+00 1.99992E-03 0.00000E+00 1.93228E-18 1.41309E-18
 -1         8 0.00000E+00 0.00000E+00 1.99992E-03 0.00000E+00-2.93494E-21-3.76507E-19
 -1         9 0.00000E+00 0.00000E+00 2.00010E-03 0.00000E+00-4.18795E-19-2.04593E-19
 -1        10 0.00000E+00 0.00000E+00 2.00010E-03 0.00000E+00 4.40404E-19 3.85247E-19
 -1        11 0.00000E+00 0.00000E+00 2.00010E-03 0.00000E+00 2.54597E-19 2.23763E-19
 -1        12 0.00000E+00 0.00000E+00 2.00010E-03 0.00000E+00 2.42075E-19 1.71784E-19
 -1        13 0.00000E+00 0.00000E+00 2.00010E-03 0.00000E+00-1.72104E-19-2.53389E-20
 -1        14 0.00000E+00 0.00000E+00 2.00010E-03 0.00000E+00 4.10158E-19 8.94127E-20
 -1        15 0.00000E+00 0.00000E+00 2.00010E-03 0.00000E+00-1.16356E-18 2.49269E-19
 -1        16 0.00000E+00 0.00000E+00 2.00010E-03 0.00000E+00 4.45153E-19 4.17991E-19
 -1        17 0.00000E+00 0.00000E+00 2.00010E-03 0.00000E+00-4.86716E-20 2.27507E-19
 -1        18 0.00000E+00 0.00000E+00 2.00010E-03 0.00000E+00 6.09490E-19-7.85158E-19
 -1        19 0.00000E+00 0.00000E+00 2.00010E-03 0.00000E+00 5.23083E-19-1.12112E-19
 -1        20 0.00000E+00 0.00000E+00 2.00010E-03 0.00000E+00 2.30452E-19 4.46960E-19
 -3
    1PSTEP                       339          68           1          
  100CL  168 99509.10044          20                     0   68           1
 -4  FORC        4    1
 -5  F1          1    2    1    0
 -5  F2          1    2    2    0
 -5  F3          1    2    3    0
 -5  ALL         1    2    0    0    1ALL
 -1         1-1.41804E+01-1.41804E+01 2.16392E+01
 -1         2-1.41804E+01 1.41804E+01 2.16392E+01
 -1         3-1.41804E+01 1.41804E+01-2.16392E+01
 -1         4-1.41804E+01-1.41804E+01-2.16392E+01
 -1         5 1.41804E+01-1.41804E+01 2.16392E+01
 -1         6 1.41804E+01 1.41804E+01 2.16392E+01
 -1         7 1.41804E+01 1.41804E+01-2.16392E+01
 -1         8 1.41804E+01-1.41804E+01-2.16392E+01
 -1         9 5.67216E+01-7.77428E-15-8.65568E+01
 -1        10 5.67216E+01-5.67216E+01 3.33067E-15
 -1        11 5.67216E+01 1.80683E-15 8.65568E+01
 -1        12 5.67216E+01 5.67216E+01 1.94844E-14
 -1        13-5.71099E-15 5.67216E+01-8.65568E+01
 -1        14 1.82636E-14-5.67216E+01-8.65568E+01
 -1        15-8.71569E-15-5.67216E+01 8.65568E+01
 -1        16-4.19775E-15 5.67216E+01 8.65568E+01
 -1        17-5.67216E+01-4.61964E-16-8.65568E+01
 -1        18-5.67216E+01-5.67216E+01 0.00000E+00
 -1        19-5.67216E+01 2.39920E-16 8.65568E+01
 -1        20-5.67216E+01 5.67216E+01 5.10703E-15
 -3
    1PSTEP                       340          68           1          
  100CL  168 99509.10044          20                     0   68           1
 -4  ERROR       1    1
 -5  STR(%)      1    1    0    0
 -1         1 4.47882E-15
 -1         2 4.47882E-15
 -1         3 4.47882E-15
 -1         4 4.47882E-15
 -1         5 4.47882E-15
 -1         6 4.47882E-15
 -1         7 4.47882E-15
 -1         8 4.47882E-15
 -1         9 4.47882E-15
 -1        10 4.47882E-15
 -1        11 4.47882E-15
 -1        12 4.47882E-15
 -1        13 4.47882E-15
 -1        14 4.47882E-15
 -1        15 4.47882E-15
 -1        16 4.47882E-15
 -1        17 4.47882E-15
 -1        18 4.47882E-15
 -1        19 4.47882E-15
 -1        20 4.47882E-15
 -3
    1PSTEP                       341          69           1          
  100CL  169 101106.2589          20                     0   69           1
 -4  DISP        4    1
 -5  D1          1    2    1    0
 -5  D2          1    2    2    0
 -5  D3          1    2    3    0
 -5  ALL         1    2    0    0    1ALL
 -1         1 0.00000E+00 0.00000E+00 0.00000E+00
 -1         2 0.00000E+00 0.00000E+00 0.00000E+00
 -1         3 0.00000E+00 0.00000E+00 2.00000E-03
 -1         4 0.00000E+00 0.00000E+00 2.00000E-03
 -1         5 0.00000E+00 0.00000E+00 0.00000E+00
 -1         6 0.00000E+00 0.00000E+00 0.00000E+00
 -1         7 0.00000E+00 0.00000E+00 2.00000E-03
 -1         8 0.00000E+00 0.00000E+00 2.00000E-03
 -1         9 0.00000E+00 0.00000E+00 0.00000E+00
 -1        10 0.00000E+00 0.00000E+00 1.00000E-03
 -1        11 0.00000E+00 0.00000E+00 2.00000E-03
 -1        12 0.00000E+00 0.00000E+00 1.00000E-03
 -1        13 0.00000E+00 0.00000E+00 0.00000E+00
 -1        14 0.00000E+00 0.00000E+00 0.00000E+00
 -1        15 0.00000E+00 0.00000E+00 2.00000E-03
 -1        16 0.00000E+00 0.00000E+00 2.00000E-03
 -1        17 0.00000E+00 0.00000E+00 0.00000E+00
 -1        18 0.00000E+00 0.00000E+00 1.00000E-03
 -1        19 0.00000E+00 0.00000E+00 2.00000E-03
 -1        20 0.00000E+00 0.00000E+00 1.00000E-03
 -3
    1PSTEP                       342          69           1          
  100CL  169 101106.2589          20                     0   69           1
 -4  STRESS      6    1
 -5  SXX         1    4    1    1
 -5  SYY         1    4    2    2
 -5  SZZ         1    4    3    3
 -5  SXY         1    4    1    2
 -5  SYZ         1    4    2    3
 -5  SZX         1    4    3    1
 -1         1 1.70348E+02 1.70348E+02 2.59279E+02 0.00000E+00 1.83448E-14 3.19749E-14
 -1         2 1.70348E+02 1.70348E+02 2.59279E+02 0.00000E+00-2.88521E-14-3.59603E-14
 -1         3 1.70348E+02 1.70348E+02 2.59279E+02 0.00000E+00-4.48736E-15-5.32942E-14
 -1         4 1.70348E+02 1.70348E+02 2.59279E+02 0.00000E+00-1.02659E-14 7.83220E-14
 -1         5 1.70348E+02 1.70348E+02 2.59279E+02 0.00000E+00 1.31694E-14-1.12602E-14
 -1         6 1.70348E+02 1.70348E+02 2.59279E+02 0.00000E+00-9.50962E-15 3.85447E-16
 -1         7 1.70348E+02 1.70348E+02 2.59279E+02 0.00000E+00 8.59235E-14 6.28362E-14
 -1         8 1.70348E+02 1.70348E+02 2.59279E+02 0.00000E+00-1.30509E-16-1.67423E-14
 -1         9 1.70364E+02 1.70364E+02 2.59303E+02 0.00000E+00-1.86227E-14-9.09770E-15
 -1        10 1.70364E+02 1.70364E+02 2.59303E+02 0.00000E+00 1.95836E-14 1.71309E-14
 -1        11 1.70364E+02 1.70364E+02 2.59303E+02 0.00000E+00 1.13212E-14 9.95016E-15
 -1        12 1.70364E+02 1.70364E+02 2.59303E+02 0.00000E+00 1.07644E-14 7.63880E-15
 -1        13 1.70364E+02 1.70364E+02 2.59303E+02 0.00000E+00-7.65301E-15-1.12676E-15
 -1        14 1.70364E+02 1.70364E+02 2.59303E+02 0.00000E+00 1.82387E-14 3.97595E-15
 -1        15 1.70364E+02 1.70364E+02 2.59303E+02 0.00000E+00-5.17406E-14 1.10843E-14
 -1        16 1.70364E+02 1.70364E+02 2.59303E+02 0.00000E+00 1.97948E-14 1.85869E-14
 -1        17 1.70364E+02 1.70364E+02 2.59303E+02 0.00000E+00-2.16430E-15 1.01166E-14
 -1        18 1.70364E+02 1.70364E+02 2.59303E+02 0.00000E+00 2.71024E-14-3.49139E-14
 -1        19 1.70364E+02 1.70364E+02 2.59303E+02 0.00000E+00 2.32601E-14-4.98531E-15
 -1        20 1.70364E+02 1.70364E+02 2.59303E+02 0.00000E+00 1.02476E-14 1.98751E-14
 -3
    1PSTEP                       343          69           1          
  100CL  169 101106.2589          20                     0   69           1
 -4  TOSTRAIN    6    1
 -5  EXX         1    4    1    1
 -5  EYY         1    4    2    2
 -5  EZZ         1    4    3    3
 -5  EXY         1    4    1    2
 -5  EYZ         1    4    2    3
 -5  EZX         1    4    3    1
 -1         1 0.00000E+00 0.00000E+00 1.99992E-03 0.00000E+00 4.12546E-19 7.19066E-19
 -1         2 0.00000E+00 0.00000E+00 1.99992E-03 0.00000E+00-6.48839E-19-8.08690E-19
 -1         3 0.00000E+00 0.00000E+00 1.99992E-03 0.00000E+00-1.00914E-19-1.19850E-18
 -1         4 0.00000E+00 0.00000E+00 1.99992E-03 0.00000E+00-2.30863E-19 1.76134E-18
 -1         5 0.00000E+00 0.00000E+00 1.99992E-03 0.00000E+00 2.96159E-19-2.53224E-19
 -1         6 0.00000E+00 0.00000E+00 1.99992E-03 0.00000E+00-2.13856E-19 8.66809E-21
 -1         7 0.00000E+00 0.00000E+00 1.99992E-03 0.00000E+00 1.93228E-18 1.41309E-18
 -1         8 0.00000E+00 0.00000E+00 1.99992E-03 0.00000E+00-2.93494E-21-3.76507E-19
 -1         9 0.00000E+00 0.00000E+00 2.00010E-03 0.00000E+00-4.18795E-19-2.04593E-19
 -1        10 0.00000E+00 0.00000E+00 2.00010E-03 0.00000E+00 4.40404E-19 3.85247E-19
 -1        11 0.00000E+00 0.00000E+00 2.00010E-03 0.00000E+00 2.54597E-19 2.23763E-19
 -1        12 0.00000E+00 0.00000E+00 2.00010E-03 0.00000E+00 2.42075E-19 1.71784E-19
 -1        13 0.00000E+00 0.00000E+00 2.00010E-03 0.00000E+00-1.72104E-19-2.53389E-20
 -1        14 0.00000E+00 0.00000E+00 2.00010E-03 0.00000E+00 4.10158E-19 8.94127E-20
 -1        15 0.00000E+00 0.00000E+00 2.00010E-03 0.00000E+00-1.16356E-18 2.49269E-19
 -1        16 0.00000E+00 0.00000E+00 2.00010E-03 0.00000E+00 4.45153E-19 4.17991E-19
 -1        17 0.00000E+00 0.00000E+00 2.00010E-03 0.00000E+00-4.86716E-20 2.27507E-19
 -1        18 0.00000E+00 0.00000E+00 2.00010E-03 0.00000E+00 6.09490E-19-7.85158E-19
 -1        19 0.00000E+00 0.00000E+00 2.00010E-03 0.00000E+00 5.23083E-19-1.12112E-19
 -1        20 0.00000E+00 0.00000E+00 2.00010E-03 0.00000E+00 2.30452E-19 4.46960E-19
 -3
    1PSTEP                       344          69           1          
  100CL  169 101106.2589          20                     0   69           1
 -4  FORC        4    1
 -5  F1          1    2    1    0
 -5  F2          1    2    2    0
 -5  F3          1    2    3    0
 -5  ALL         1    2    0    0    1ALL
 -1         1-1.41963E+01-1.41963E+01 2.16075E+01
 -1         2-1.41963E+01 1.41963E+01 2.16075E+01
 -1         3-1.41963E+01 1.41963E+01-2.16075E+01
 -1         4-1.41963E+01-1.41963E+01-2.16075E+01
 -1         5 1.41963E+01-1.41963E+01 2.16075E+01
 -1         6 1.41963E+01 1.41963E+01 2.16075E+01
 -1         7 1.41963E+01 1.41963E+01-2.16075E+01
 -1         8 1.41963E+01-1.41963E+01-2.16075E+01
 -1         9 5.67850E+01-6.91366E-15-8.64299E+01
 -1        10 5.67850E+01-5.67850E+01 2.88658E-15
 -1        11 5.67850E+01 1.80664E-15 8.64299E+01
 -1        12 5.67850E+01 5.67850E+01 1.67366E-14
 -1        13 8.69429E-15 5.67850E+01-8.64299E+01
 -1        14 1.31576E-14-5.67850E+01-8.64299E+01
 -1        15-3.38767E-15-5.67850E+01 8.64299E+01
 -1        16-3.53175E-15 5.67850E+01 8.64299E+01
 -1        17-5.67850E+01-2.45884E-15-8.64299E+01
 -1        18-5.67850E+01-5.67850E+01-8.88178E-15
 -1        19-5.67850E+01-1.53797E-15 8.64299E+01
 -1        20-5.67850E+01 5.67850E+01 1.17684E-14
 -3
    1PSTEP                       345          69           1          
  100CL  169 101106.2589          20                     0   69           1
 -4  ERROR       1    1
 -5  STR(%)      1    1    0    0
 -1         1 2.80337E-14
 -1         2 2.80337E-14
 -1         3 2.80337E-14
 -1         4 2.80337E-14
 -1         5 2.80337E-14
 -1         6 2.80337E-14
 -1         7 2.80337E-14
 -1         8 2.80337E-14
 -1         9 2.80337E-14
 -1        10 2.80337E-14
 -1        11 2.80337E-14
 -1        12 2.80337E-14
 -1        13 2.80337E-14
 -1        14 2.80337E-14
 -1        15 2.80337E-14
 -1        16 2.80337E-14
 -1        17 2.80337E-14
 -1        18 2.80337E-14
 -1        19 2.80337E-14
 -1        20 2.80337E-14
 -3
    1PSTEP                       346          70           1          
  100CL  170 102703.4174          20                     0   70           1
 -4  DISP        4    1
 -5  D1          1    2    1    0
 -5  D2          1    2    2    0
 -5  D3          1    2    3    0
 -5  ALL         1    2    0    0    1ALL
 -1         1 0.00000E+00 0.00000E+00 0.00000E+00
 -1         2 0.00000E+00 0.00000E+00 0.00000E+00
 -1         3 0.00000E+00 0.00000E+00 2.00000E-03
 -1         4 0.00000E+00 0.00000E+00 2.00000E-03
 -1         5 0.00000E+00 0.00000E+00 0.00000E+00
 -1         6 0.00000E+00 0.00000E+00 0.00000E+00
 -1         7 0.00000E+00 0.00000E+00 2.00000E-03
 -1         8 0.00000E+00 0.00000E+00 2.00000E-03
 -1         9 0.00000E+00 0.00000E+00 0.00000E+00
 -1        10 0.00000E+00 0.00000E+00 1.00000E-03
 -1        11 0.00000E+00 0.00000E+00 2.00000E-03
 -1        12 0.00000E+00 0.00000E+00 1.00000E-03
 -1        13 0.00000E+00 0.00000E+00 0.00000E+00
 -1        14 0.00000E+00 0.00000E+00 0.00000E+00
 -1        15 0.00000E+00 0.00000E+00 2.00000E-03
 -1        16 0.00000E+00 0.00000E+00 2.00000E-03
 -1        17 0.00000E+00 0.00000E+00 0.00000E+00
 -1        18 0.00000E+00 0.00000E+00 1.00000E-03
 -1        19 0.00000E+00 0.00000E+00 2.00000E-03
 -1        20 0.00000E+00 0.00000E+00 1.00000E-03
 -3
    1PSTEP                       347          70           1          
  100CL  170 102703.4174          20                     0   70           1
 -4  STRESS      6    1
 -5  SXX         1    4    1    1
 -5  SYY         1    4    2    2
 -5  SZZ         1    4    3    3
 -5  SXY         1    4    1    2
 -5  SYZ         1    4    2    3
 -5  SZX         1    4    3    1
 -1         1 1.70537E+02 1.70537E+02 2.58901E+02 0.00000E+00 1.82278E-14 3.17710E-14
 -1         2 1.70537E+02 1.70537E+02 2.58901E+02 0.00000E+00-2.86681E-14-3.57309E-14
 -1         3 1.70537E+02 1.70537E+02 2.58901E+02 0.00000E+00-4.45874E-15-5.29543E-14
 -1         4 1.70537E+02 1.70537E+02 2.58901E+02 0.00000E+00-1.02004E-14 7.78224E-14
 -1         5 1.70537E+02 1.70537E+02 2.58901E+02 0.00000E+00 1.30854E-14-1.11884E-14
 -1         6 1.70537E+02 1.70537E+02 2.58901E+02 0.00000E+00-9.44896E-15 3.82988E-16
 -1         7 1.70537E+02 1.70537E+02 2.58901E+02 0.00000E+00 8.53754E-14 6.24354E-14
 -1         8 1.70537E+02 1.70537E+02 2.58901E+02 0.00000E+00-1.29676E-16-1.66355E-14
 -1         9 1.70553E+02 1.70553E+02 2.58925E+02 0.00000E+00-1.85039E-14-9.03967E-15
 -1        10 1.70553E+02 1.70553E+02 2.58925E+02 0.00000E+00 1.94587E-14 1.70216E-14
 -1        11 1.70553E+02 1.70553E+02 2.58925E+02 0.00000E+00 1.12490E-14 9.88669E-15
 -1        12 1.70553E+02 1.70553E+02 2.58925E+02 0.00000E+00 1.06958E-14 7.59007E-15
 -1        13 1.70553E+02 1.70553E+02 2.58925E+02 0.00000E+00-7.60420E-15-1.11957E-15
 -1        14 1.70553E+02 1.70553E+02 2.58925E+02 0.00000E+00 1.81223E-14 3.95058E-15
 -1        15 1.70553E+02 1.70553E+02 2.58925E+02 0.00000E+00-5.14106E-14 1.10136E-14
 -1        16 1.70553E+02 1.70553E+02 2.58925E+02 0.00000E+00 1.96685E-14 1.84684E-14
 -1        17 1.70553E+02 1.70553E+02 2.58925E+02 0.00000E+00-2.15049E-15 1.00521E-14
 -1        18 1.70553E+02 1.70553E+02 2.58925E+02 0.00000E+00 2.69295E-14-3.46912E-14
 -1        19 1.70553E+02 1.70553E+02 2.58925E+02 0.00000E+00 2.31117E-14-4.95351E-15
 -1        20 1.70553E+02 1.70553E+02 2.58925E+02 0.00000E+00 1.01822E-14 1.97483E-14
 -3
    1PSTEP                       348          70           1          
  100CL  170 102703.4174          20                     0   70           1
 -4  TOSTRAIN    6    1
 -5  EXX         1    4    1    1
 -5  EYY         1    4    2    2
 -5  EZZ         1    4    3    3
 -5  EXY         1    4    1    2
 -5  EYZ         1    4    2    3
 -5  EZX         1    4    3    1
 -1         1 0.00000E+00 0.00000E+00 1.99992E-03 0.00000E+00 4.12546E-19 7.19066E-19
 -1         2 0.00000E+00 0.00000E+00 1.99992E-03 0.00000E+00-6.48839E-19-8.08690E-19
 -1         3 0.00000E+00 0.00000E+00 1.99992E-03 0.00000E+00-1.00914E-19-1.19850E-18
 -1         4 0.00000E+00 0.00000E+00 1.99992E-03 0.00000E+00-2.30863E-19 1.76134E-18
 -1         5 0.00000E+00 0.00000E+00 1.99992E-03 0.00000E+00 2.96159E-19-2.53224E-19
 -1         6 0.00000E+00 0.00000E+00 1.99992E-03 0.00000E+00-2.13856E-19 8.66809E-21
 -1         7 0.00000E+00 0.00000E+00 1.99992E-03 0.00000E+00 1.93228E-18 1.41309E-18
 -1         8 0.00000E+00 0.00000E+00 1.99992E-03 0.00000E+00-2.93494E-21-3.76507E-19
 -1         9 0.00000E+00 0.00000E+00 2.00010E-03 0.00000E+00-4.18795E-19-2.04593E-19
 -1        10 0.00000E+00 0.00000E+00 2.00010E-03 0.00000E+00 4.40404E-19 3.85247E-19
 -1        11 0.00000E+00 0.00000E+00 2.00010E-03 0.00000E+00 2.54597E-19 2.23763E-19
 -1        12 0.00000E+00 0.00000E+00 2.00010E-03 0.00000E+00 2.42075E-19 1.71784E-19
 -1        13 0.00000E+00 0.00000E+00 2.00010E-03 0.00000E+00-1.72104E-19-2.53389E-20
 -1        14 0.00000E+00 0.00000E+00 2.00010E-03 0.00000E+00 4.10158E-19 8.94127E-20
 -1        15 0.00000E+00 0.00000E+00 2.00010E-03 0.00000E+00-1.16356E-18 2.49269E-19
 -1        16 0.00000E+00 0.00000E+00 2.00010E-03 0.00000E+00 4.45153E-19 4.17991E-19
 -1        17 0.00000E+00 0.00000E+00 2.00010E-03 0.00000E+00-4.86716E-20 2.27507E-19
 -1        18 0.00000E+00 0.00000E+00 2.00010E-03 0.00000E+00 6.09490E-19-7.85158E-19
 -1        19 0.00000E+00 0.00000E+00 2.00010E-03 0.00000E+00 5.23083E-19-1.12112E-19
 -1        20 0.00000E+00 0.00000E+00 2.00010E-03 0.00000E+00 2.30452E-19 4.46960E-19
 -3
    1PSTEP                       349          70           1          
  100CL  170 102703.4174          20                     0   70           1
 -4  FORC        4    1
 -5  F1          1    2    1    0
 -5  F2          1    2    2    0
 -5  F3          1    2    3    0
 -5  ALL         1    2    0    0    1ALL
 -1         1-1.42120E+01-1.42120E+01 2.15760E+01
 -1         2-1.42120E+01 1.42120E+01 2.15760E+01
 -1         3-1.42120E+01 1.42120E+01-2.15760E+01
 -1         4-1.42120E+01-1.42120E+01-2.15760E+01
 -1         5 1.42120E+01-1.42120E+01 2.15760E+01
 -1         6 1.42120E+01 1.42120E+01 2.15760E+01
 -1         7 1.42120E+01 1.42120E+01-2.15760E+01
 -1         8 1.42120E+01-1.42120E+01-2.15760E+01
 -1         9 5.68481E+01-6.94122E-15-8.63039E+01
 -1        10 5.68481E+01-5.68481E+01 9.76996E-15
 -1        11 5.68481E+01 3.58280E-15 8.63039E+01
 -1        12 5.68481E+01 5.68481E+01 2.52853E-14
 -1        13-5.90501E-15 5.68481E+01-8.63039E+01
 -1        14 9.16189E-15-5.68481E+01-8.63039E+01
 -1        15-1.61237E-15-5.68481E+01 8.63039E+01
 -1        16-5.75233E-15 5.68481E+01 8.63039E+01
 -1        17-5.68481E+01-2.23527E-15-8.63039E+01
 -1        18-5.68481E+01-5.68481E+01 1.77636E-15
 -1        19-5.68481E+01 2.36869E-16 8.63039E+01
 -1        20-5.68481E+01 5.68481E+01 3.99680E-15
 -3
    1PSTEP                       350          70           1          
  100CL  170 102703.4174          20                     0   70           1
 -4  ERROR       1    1
 -5  STR(%)      1    1    0    0
 -1         1 6.73792E-15
 -1         2 6.73792E-15
 -1         3 6.73792E-15
 -1         4 6.73792E-15
 -1         5 6.73792E-15
 -1         6 6.73792E-15
 -1         7 6.73792E-15
 -1         8 6.73792E-15
 -1         9 6.73792E-15
 -1        10 6.73792E-15
 -1        11 6.73792E-15
 -1        12 6.73792E-15
 -1        13 6.73792E-15
 -1        14 6.73792E-15
 -1        15 6.73792E-15
 -1        16 6.73792E-15
 -1        17 6.73792E-15
 -1        18 6.73792E-15
 -1        19 6.73792E-15
 -1        20 6.73792E-15
 -3
    1PSTEP                       351          71           1          
  100CL  171 105099.1552          20                     0   71           1
 -4  DISP        4    1
 -5  D1          1    2    1    0
 -5  D2          1    2    2    0
 -5  D3          1    2    3    0
 -5  ALL         1    2    0    0    1ALL
 -1         1 0.00000E+00 0.00000E+00 0.00000E+00
 -1         2 0.00000E+00 0.00000E+00 0.00000E+00
 -1         3 0.00000E+00 0.00000E+00 2.00000E-03
 -1         4 0.00000E+00 0.00000E+00 2.00000E-03
 -1         5 0.00000E+00 0.00000E+00 0.00000E+00
 -1         6 0.00000E+00 0.00000E+00 0.00000E+00
 -1         7 0.00000E+00 0.00000E+00 2.00000E-03
 -1         8 0.00000E+00 0.00000E+00 2.00000E-03
 -1         9 0.00000E+00 0.00000E+00 0.00000E+00
 -1        10 0.00000E+00 0.00000E+00 1.00000E-03
 -1        11 0.00000E+00 0.00000E+00 2.00000E-03
 -1        12 0.00000E+00 0.00000E+00 1.00000E-03
 -1        13 0.00000E+00 0.00000E+00 0.00000E+00
 -1        14 0.00000E+00 0.00000E+00 0.00000E+00
 -1        15 0.00000E+00 0.00000E+00 2.00000E-03
 -1        16 0.00000E+00 0.00000E+00 2.00000E-03
 -1        17 0.00000E+00 0.00000E+00 0.00000E+00
 -1        18 0.00000E+00 0.00000E+00 1.00000E-03
 -1        19 0.00000E+00 0.00000E+00 2.00000E-03
 -1        20 0.00000E+00 0.00000E+00 1.00000E-03
 -3
    1PSTEP                       352          71           1          
  100CL  171 105099.1552          20                     0   71           1
 -4  STRESS      6    1
 -5  SXX         1    4    1    1
 -5  SYY         1    4    2    2
 -5  SZZ         1    4    3    3
 -5  SXY         1    4    1    2
 -5  SYZ         1    4    2    3
 -5  SZX         1    4    3    1
 -1         1 1.70818E+02 1.70818E+02 2.58339E+02 0.00000E+00 1.80540E-14 3.14680E-14
 -1         2 1.70818E+02 1.70818E+02 2.58339E+02 0.00000E+00-2.83947E-14-3.53901E-14
 -1         3 1.70818E+02 1.70818E+02 2.58339E+02 0.00000E+00-4.41621E-15-5.24492E-14
 -1         4 1.70818E+02 1.70818E+02 2.58339E+02 0.00000E+00-1.01031E-14 7.70802E-14
 -1         5 1.70818E+02 1.70818E+02 2.58339E+02 0.00000E+00 1.29606E-14-1.10817E-14
 -1         6 1.70818E+02 1.70818E+02 2.58339E+02 0.00000E+00-9.35884E-15 3.79336E-16
 -1         7 1.70818E+02 1.70818E+02 2.58339E+02 0.00000E+00 8.45611E-14 6.18399E-14
 -1         8 1.70818E+02 1.70818E+02 2.58339E+02 0.00000E+00-1.28440E-16-1.64768E-14
 -1         9 1.70834E+02 1.70834E+02 2.58363E+02 0.00000E+00-1.83274E-14-8.95346E-15
 -1        10 1.70834E+02 1.70834E+02 2.58363E+02 0.00000E+00 1.92731E-14 1.68593E-14
 -1        11 1.70834E+02 1.70834E+02 2.58363E+02 0.00000E+00 1.11417E-14 9.79240E-15
 -1        12 1.70834E+02 1.70834E+02 2.58363E+02 0.00000E+00 1.05937E-14 7.51768E-15
 -1        13 1.70834E+02 1.70834E+02 2.58363E+02 0.00000E+00-7.53167E-15-1.10889E-15
 -1        14 1.70834E+02 1.70834E+02 2.58363E+02 0.00000E+00 1.79495E-14 3.91291E-15
 -1        15 1.70834E+02 1.70834E+02 2.58363E+02 0.00000E+00-5.09203E-14 1.09086E-14
 -1        16 1.70834E+02 1.70834E+02 2.58363E+02 0.00000E+00 1.94809E-14 1.82922E-14
 -1        17 1.70834E+02 1.70834E+02 2.58363E+02 0.00000E+00-2.12998E-15 9.95623E-15
 -1        18 1.70834E+02 1.70834E+02 2.58363E+02 0.00000E+00 2.66727E-14-3.43603E-14
 -1        19 1.70834E+02 1.70834E+02 2.58363E+02 0.00000E+00 2.28913E-14-4.90626E-15
 -1        20 1.70834E+02 1.70834E+02 2.58363E+02 0.00000E+00 1.00851E-14 1.95600E-14
 -3
    1PSTEP                       353          71           1          
  100CL  171 105099.1552          20                     0   71           1
 -4  TOSTRAIN    6    1
 -5  EXX         1    4    1    1
 -5  EYY         1    4    2    2
 -5  EZZ         1    4    3    3
 -5  EXY         1    4    1    2
 -5  EYZ         1    4    2    3
 -5  EZX         1    4    3    1
 -1         1 0.00000E+00 0.00000E+00 1.99992E-03 0.00000E+00 4.12546E-19 7.19066E-19
 -1         2 0.00000E+00 0.00000E+00 1.99992E-03 0.00000E+00-6.48839E-19-8.08690E-19
 -1         3 0.00000E+00 0.00000E+00 1.99992E-03 0.00000E+00-1.00914E-19-1.19850E-18
 -1         4 0.00000E+00 0.00000E+00 1.99992E-03 0.00000E+00-2.30863E-19 1.76134E-18
 -1         5 0.00000E+00 0.00000E+00 1.99992E-03 0.00000E+00 2.96159E-19-2.53224E-19
 -1         6 0.00000E+00 0.00000E+00 1.99992E-03 0.00000E+00-2.13856E-19 8.66809E-21
 -1         7 0.00000E+00 0.00000E+00 1.99992E-03 0.00000E+00 1.93228E-18 1.41309E-18
 -1         8 0.00000E+00 0.00000E+00 1.99992E-03 0.00000E+00-2.93494E-21-3.76507E-19
 -1         9 0.00000E+00 0.00000E+00 2.00010E-03 0.00000E+00-4.18795E-19-2.04593E-19
 -1        10 0.00000E+00 0.00000E+00 2.00010E-03 0.00000E+00 4.40404E-19 3.85247E-19
 -1        11 0.00000E+00 0.00000E+00 2.00010E-03 0.00000E+00 2.54597E-19 2.23763E-19
 -1        12 0.00000E+00 0.00000E+00 2.00010E-03 0.00000E+00 2.42075E-19 1.71784E-19
 -1        13 0.00000E+00 0.00000E+00 2.00010E-03 0.00000E+00-1.72104E-19-2.53389E-20
 -1        14 0.00000E+00 0.00000E+00 2.00010E-03 0.00000E+00 4.10158E-19 8.94127E-20
 -1        15 0.00000E+00 0.00000E+00 2.00010E-03 0.00000E+00-1.16356E-18 2.49269E-19
 -1        16 0.00000E+00 0.00000E+00 2.00010E-03 0.00000E+00 4.45153E-19 4.17991E-19
 -1        17 0.00000E+00 0.00000E+00 2.00010E-03 0.00000E+00-4.86716E-20 2.27507E-19
 -1        18 0.00000E+00 0.00000E+00 2.00010E-03 0.00000E+00 6.09490E-19-7.85158E-19
 -1        19 0.00000E+00 0.00000E+00 2.00010E-03 0.00000E+00 5.23083E-19-1.12112E-19
 -1        20 0.00000E+00 0.00000E+00 2.00010E-03 0.00000E+00 2.30452E-19 4.46960E-19
 -3
    1PSTEP                       354          71           1          
  100CL  171 105099.1552          20                     0   71           1
 -4  FORC        4    1
 -5  F1          1    2    1    0
 -5  F2          1    2    2    0
 -5  F3          1    2    3    0
 -5  ALL         1    2    0    0    1ALL
 -1         1-1.42354E+01-1.42354E+01 2.15291E+01
 -1         2-1.42354E+01 1.42354E+01 2.15291E+01
 -1         3-1.42354E+01 1.42354E+01-2.15291E+01
 -1         4-1.42354E+01-1.42354E+01-2.15291E+01
 -1         5 1.42354E+01-1.42354E+01 2.15291E+01
 -1         6 1.42354E+01 1.42354E+01 2.15291E+01
 -1         7 1.42354E+01 1.42354E+01-2.15291E+01
 -1         8 1.42354E+01-1.42354E+01-2.15291E+01
 -1         9 5.69417E+01-6.46909E-15-8.61166E+01
 -1        10 5.69417E+01-5.69417E+01 1.42109E-14
 -1        11 5.69417E+01 6.69114E-15 8.61166E+01
 -1        12 5.69417E+01 5.69417E+01 2.07889E-14
 -1        13 5.69702E-15 5.69417E+01-8.61166E+01
 -1        14 1.11619E-14-5.69417E+01-8.61166E+01
 -1        15-3.39029E-15-5.69417E+01 8.61166E+01
 -1        16 9.08809E-16 5.69417E+01 8.61166E+01
 -1        17-5.69417E+01-2.23301E-15-8.61166E+01
 -1        18-5.69417E+01-5.69417E+01 1.77636E-15
 -1        19-5.69417E+01 2.34610E-16 8.61166E+01
 -1        20-5.69417E+01 5.69417E+01 6.88338E-15
 -3
    1PSTEP                       355          71           1          
  100CL  171 105099.1552          20                     0   71           1
 -4  ERROR       1    1
 -5  STR(%)      1    1    0    0
 -1         1 9.00343E-15
 -1         2 9.00343E-15
 -1         3 9.00343E-15
 -1         4 9.00343E-15
 -1         5 9.00343E-15
 -1         6 9.00343E-15
 -1         7 9.00343E-15
 -1         8 9.00343E-15
 -1         9 9.00343E-15
 -1        10 9.00343E-15
 -1        11 9.00343E-15
 -1        12 9.00343E-15
 -1        13 9.00343E-15
 -1        14 9.00343E-15
 -1        15 9.00343E-15
 -1        16 9.00343E-15
 -1        17 9.00343E-15
 -1        18 9.00343E-15
 -1        19 9.00343E-15
 -1        20 9.00343E-15
 -3
    1PSTEP                       356          72           1          
  100CL  172 106796.0853          20                     0   72           1
 -4  DISP        4    1
 -5  D1          1    2    1    0
 -5  D2          1    2    2    0
 -5  D3          1    2    3    0
 -5  ALL         1    2    0    0    1ALL
 -1         1 0.00000E+00 0.00000E+00 0.00000E+00
 -1         2 0.00000E+00 0.00000E+00 0.00000E+00
 -1         3 0.00000E+00 0.00000E+00 2.00000E-03
 -1         4 0.00000E+00 0.00000E+00 2.00000E-03
 -1         5 0.00000E+00 0.00000E+00 0.00000E+00
 -1         6 0.00000E+00 0.00000E+00 0.00000E+00
 -1         7 0.00000E+00 0.00000E+00 2.00000E-03
 -1         8 0.00000E+00 0.00000E+00 2.00000E-03
 -1         9 0.00000E+00 0.00000E+00 0.00000E+00
 -1        10 0.00000E+00 0.00000E+00 1.00000E-03
 -1        11 0.00000E+00 0.00000E+00 2.00000E-03
 -1        12 0.00000E+00 0.00000E+00 1.00000E-03
 -1        13 0.00000E+00 0.00000E+00 0.00000E+00
 -1        14 0.00000E+00 0.00000E+00 0.00000E+00
 -1        15 0.00000E+00 0.00000E+00 2.00000E-03
 -1        16 0.00000E+00 0.00000E+00 2.00000E-03
 -1        17 0.00000E+00 0.00000E+00 0.00000E+00
 -1        18 0.00000E+00 0.00000E+00 1.00000E-03
 -1        19 0.00000E+00 0.00000E+00 2.00000E-03
 -1        20 0.00000E+00 0.00000E+00 1.00000E-03
 -3
    1PSTEP                       357          72           1          
  100CL  172 106796.0853          20                     0   72           1
 -4  STRESS      6    1
 -5  SXX         1    4    1    1
 -5  SYY         1    4    2    2
 -5  SZZ         1    4    3    3
 -5  SXY         1    4    1    2
 -5  SYZ         1    4    2    3
 -5  SZX         1    4    3    1
 -1         1 1.71016E+02 1.71016E+02 2.57944E+02 0.00000E+00 1.79317E-14 3.12548E-14
 -1         2 1.71016E+02 1.71016E+02 2.57944E+02 0.00000E+00-2.82023E-14-3.51504E-14
 -1         3 1.71016E+02 1.71016E+02 2.57944E+02 0.00000E+00-4.38630E-15-5.20939E-14
 -1         4 1.71016E+02 1.71016E+02 2.57944E+02 0.00000E+00-1.00346E-14 7.65580E-14
 -1         5 1.71016E+02 1.71016E+02 2.57944E+02 0.00000E+00 1.28728E-14-1.10066E-14
 -1         6 1.71016E+02 1.71016E+02 2.57944E+02 0.00000E+00-9.29544E-15 3.76766E-16
 -1         7 1.71016E+02 1.71016E+02 2.57944E+02 0.00000E+00 8.39883E-14 6.14209E-14
 -1         8 1.71016E+02 1.71016E+02 2.57944E+02 0.00000E+00-1.27569E-16-1.63652E-14
 -1         9 1.71031E+02 1.71031E+02 2.57967E+02 0.00000E+00-1.82033E-14-8.89280E-15
 -1        10 1.71031E+02 1.71031E+02 2.57967E+02 0.00000E+00 1.91425E-14 1.67451E-14
 -1        11 1.71031E+02 1.71031E+02 2.57967E+02 0.00000E+00 1.10663E-14 9.72606E-15
 -1        12 1.71031E+02 1.71031E+02 2.57967E+02 0.00000E+00 1.05220E-14 7.46675E-15
 -1        13 1.71031E+02 1.71031E+02 2.57967E+02 0.00000E+00-7.48065E-15-1.10138E-15
 -1        14 1.71031E+02 1.71031E+02 2.57967E+02 0.00000E+00 1.78279E-14 3.88640E-15
 -1        15 1.71031E+02 1.71031E+02 2.57967E+02 0.00000E+00-5.05753E-14 1.08347E-14
 -1        16 1.71031E+02 1.71031E+02 2.57967E+02 0.00000E+00 1.93489E-14 1.81683E-14
 -1        17 1.71031E+02 1.71031E+02 2.57967E+02 0.00000E+00-2.11555E-15 9.88878E-15
 -1        18 1.71031E+02 1.71031E+02 2.57967E+02 0.00000E+00 2.64920E-14-3.41276E-14
 -1        19 1.71031E+02 1.71031E+02 2.57967E+02 0.00000E+00 2.27362E-14-4.87303E-15
 -1        20 1.71031E+02 1.71031E+02 2.57967E+02 0.00000E+00 1.00168E-14 1.94275E-14
 -3
    1PSTEP                       358          72           1          
  100CL  172 106796.0853          20                     0   72           1
 -4  TOSTRAIN    6    1
 -5  EXX         1    4    1    1
 -5  EYY         1    4    2    2
 -5  EZZ         1    4    3    3
 -5  EXY         1    4    1    2
 -5  EYZ         1    4    2    3
 -5  EZX         1    4    3    1
 -1         1 0.00000E+00 0.00000E+00 1.99992E-03 0.00000E+00 4.12546E-19 7.19066E-19
 -1         2 0.00000E+00 0.00000E+00 1.99992E-03 0.00000E+00-6.48839E-19-8.08690E-19
 -1         3 0.00000E+00 0.00000E+00 1.99992E-03 0.00000E+00-1.00914E-19-1.19850E-18
 -1         4 0.00000E+00 0.00000E+00 1.99992E-03 0.00000E+00-2.30863E-19 1.76134E-18
 -1         5 0.00000E+00 0.00000E+00 1.99992E-03 0.00000E+00 2.96159E-19-2.53224E-19
 -1         6 0.00000E+00 0.00000E+00 1.99992E-03 0.00000E+00-2.13856E-19 8.66809E-21
 -1         7 0.00000E+00 0.00000E+00 1.99992E-03 0.00000E+00 1.93228E-18 1.41309E-18
 -1         8 0.00000E+00 0.00000E+00 1.99992E-03 0.00000E+00-2.93494E-21-3.76507E-19
 -1         9 0.00000E+00 0.00000E+00 2.00010E-03 0.00000E+00-4.18795E-19-2.04593E-19
 -1        10 0.00000E+00 0.00000E+00 2.00010E-03 0.00000E+00 4.40404E-19 3.85247E-19
 -1        11 0.00000E+00 0.00000E+00 2.00010E-03 0.00000E+00 2.54597E-19 2.23763E-19
 -1        12 0.00000E+00 0.00000E+00 2.00010E-03 0.00000E+00 2.42075E-19 1.71784E-19
 -1        13 0.00000E+00 0.00000E+00 2.00010E-03 0.00000E+00-1.72104E-19-2.53389E-20
 -1        14 0.00000E+00 0.00000E+00 2.00010E-03 0.00000E+00 4.10158E-19 8.94127E-20
 -1        15 0.00000E+00 0.00000E+00 2.00010E-03 0.00000E+00-1.16356E-18 2.49269E-19
 -1        16 0.00000E+00 0.00000E+00 2.00010E-03 0.00000E+00 4.45153E-19 4.17991E-19
 -1        17 0.00000E+00 0.00000E+00 2.00010E-03 0.00000E+00-4.86716E-20 2.27507E-19
 -1        18 0.00000E+00 0.00000E+00 2.00010E-03 0.00000E+00 6.09490E-19-7.85158E-19
 -1        19 0.00000E+00 0.00000E+00 2.00010E-03 0.00000E+00 5.23083E-19-1.12112E-19
 -1        20 0.00000E+00 0.00000E+00 2.00010E-03 0.00000E+00 2.30452E-19 4.46960E-19
 -3
    1PSTEP                       359          72           1          
  100CL  172 106796.0853          20                     0   72           1
 -4  FORC        4    1
 -5  F1          1    2    1    0
 -5  F2          1    2    2    0
 -5  F3          1    2    3    0
 -5  ALL         1    2    0    0    1ALL
 -1         1-1.42519E+01-1.42519E+01 2.14962E+01
 -1         2-1.42519E+01 1.42519E+01 2.14962E+01
 -1         3-1.42519E+01 1.42519E+01-2.14962E+01
 -1         4-1.42519E+01-1.42519E+01-2.14962E+01
 -1         5 1.42519E+01-1.42519E+01 2.14962E+01
 -1         6 1.42519E+01 1.42519E+01 2.14962E+01
 -1         7 1.42519E+01 1.42519E+01-2.14962E+01
 -1         8 1.42519E+01-1.42519E+01-2.14962E+01
 -1         9 5.70076E+01-1.06877E-14-8.59848E+01
 -1        10 5.70076E+01-5.70076E+01 1.33227E-15
 -1        11 5.70076E+01 3.36027E-15 8.59848E+01
 -1        12 5.70076E+01 5.70076E+01 1.53766E-14
 -1        13-4.54465E-15 5.70076E+01-8.59848E+01
 -1        14 9.83069E-15-5.70076E+01-8.59848E+01
 -1        15 7.26675E-15-5.70076E+01 8.59848E+01
 -1        16-1.97791E-15 5.70076E+01 8.59848E+01
 -1        17-5.70076E+01-4.00778E-15-8.59848E+01
 -1        18-5.70076E+01-5.70076E+01-5.32907E-15
 -1        19-5.70076E+01 2.33020E-16 8.59848E+01
 -1        20-5.70076E+01 5.70076E+01-1.13243E-14
 -3
    1PSTEP                       360          72           1          
  100CL  172 106796.0853          20                     0   72           1
 -4  ERROR       1    1
 -5  STR(%)      1    1    0    0
 -1         1 9.01722E-15
 -1         2 9.01722E-15
 -1         3 9.01722E-15
 -1         4 9.01722E-15
 -1         5 9.01722E-15
 -1         6 9.01722E-15
 -1         7 9.01722E-15
 -1         8 9.01722E-15
 -1         9 9.01722E-15
 -1        10 9.01722E-15
 -1        11 9.01722E-15
 -1        12 9.01722E-15
 -1        13 9.01722E-15
 -1        14 9.01722E-15
 -1        15 9.01722E-15
 -1        16 9.01722E-15
 -1        17 9.01722E-15
 -1        18 9.01722E-15
 -1        19 9.01722E-15
 -1        20 9.01722E-15
 -3
    1PSTEP                       361          73           1          
  100CL  173 108493.0154          20                     0   73           1
 -4  DISP        4    1
 -5  D1          1    2    1    0
 -5  D2          1    2    2    0
 -5  D3          1    2    3    0
 -5  ALL         1    2    0    0    1ALL
 -1         1 0.00000E+00 0.00000E+00 0.00000E+00
 -1         2 0.00000E+00 0.00000E+00 0.00000E+00
 -1         3 0.00000E+00 0.00000E+00 2.00000E-03
 -1         4 0.00000E+00 0.00000E+00 2.00000E-03
 -1         5 0.00000E+00 0.00000E+00 0.00000E+00
 -1         6 0.00000E+00 0.00000E+00 0.00000E+00
 -1         7 0.00000E+00 0.00000E+00 2.00000E-03
 -1         8 0.00000E+00 0.00000E+00 2.00000E-03
 -1         9 0.00000E+00 0.00000E+00 0.00000E+00
 -1        10 0.00000E+00 0.00000E+00 1.00000E-03
 -1        11 0.00000E+00 0.00000E+00 2.00000E-03
 -1        12 0.00000E+00 0.00000E+00 1.00000E-03
 -1        13 0.00000E+00 0.00000E+00 0.00000E+00
 -1        14 0.00000E+00 0.00000E+00 0.00000E+00
 -1        15 0.00000E+00 0.00000E+00 2.00000E-03
 -1        16 0.00000E+00 0.00000E+00 2.00000E-03
 -1        17 0.00000E+00 0.00000E+00 0.00000E+00
 -1        18 0.00000E+00 0.00000E+00 1.00000E-03
 -1        19 0.00000E+00 0.00000E+00 2.00000E-03
 -1        20 0.00000E+00 0.00000E+00 1.00000E-03
 -3
    1PSTEP                       362          73           1          
  100CL  173 108493.0154          20                     0   73           1
 -4  STRESS      6    1
 -5  SXX         1    4    1    1
 -5  SYY         1    4    2    2
 -5  SZZ         1    4    3    3
 -5  SXY         1    4    1    2
 -5  SYZ         1    4    2    3
 -5  SZX         1    4    3    1
 -1         1 1.71212E+02 1.71212E+02 2.57552E+02 0.00000E+00 1.78102E-14 3.10431E-14
 -1         2 1.71212E+02 1.71212E+02 2.57552E+02 0.00000E+00-2.80113E-14-3.49122E-14
 -1         3 1.71212E+02 1.71212E+02 2.57552E+02 0.00000E+00-4.35658E-15-5.17410E-14
 -1         4 1.71212E+02 1.71212E+02 2.57552E+02 0.00000E+00-9.96666E-15 7.60393E-14
 -1         5 1.71212E+02 1.71212E+02 2.57552E+02 0.00000E+00 1.27856E-14-1.09320E-14
 -1         6 1.71212E+02 1.71212E+02 2.57552E+02 0.00000E+00-9.23247E-15 3.74214E-16
 -1         7 1.71212E+02 1.71212E+02 2.57552E+02 0.00000E+00 8.34193E-14 6.10049E-14
 -1         8 1.71212E+02 1.71212E+02 2.57552E+02 0.00000E+00-1.26705E-16-1.62543E-14
 -1         9 1.71228E+02 1.71228E+02 2.57575E+02 0.00000E+00-1.80800E-14-8.83256E-15
 -1        10 1.71228E+02 1.71228E+02 2.57575E+02 0.00000E+00 1.90129E-14 1.66316E-14
 -1        11 1.71228E+02 1.71228E+02 2.57575E+02 0.00000E+00 1.09913E-14 9.66017E-15
 -1        12 1.71228E+02 1.71228E+02 2.57575E+02 0.00000E+00 1.04507E-14 7.41617E-15
 -1        13 1.71228E+02 1.71228E+02 2.57575E+02 0.00000E+00-7.42997E-15-1.09392E-15
 -1        14 1.71228E+02 1.71228E+02 2.57575E+02 0.00000E+00 1.77071E-14 3.86007E-15
 -1        15 1.71228E+02 1.71228E+02 2.57575E+02 0.00000E+00-5.02327E-14 1.07613E-14
 -1        16 1.71228E+02 1.71228E+02 2.57575E+02 0.00000E+00 1.92179E-14 1.80452E-14
 -1        17 1.71228E+02 1.71228E+02 2.57575E+02 0.00000E+00-2.10122E-15 9.82179E-15
 -1        18 1.71228E+02 1.71228E+02 2.57575E+02 0.00000E+00 2.63125E-14-3.38964E-14
 -1        19 1.71228E+02 1.71228E+02 2.57575E+02 0.00000E+00 2.25822E-14-4.84001E-15
 -1        20 1.71228E+02 1.71228E+02 2.57575E+02 0.00000E+00 9.94891E-15 1.92959E-14
 -3
    1PSTEP                       363          73           1          
  100CL  173 108493.0154          20                     0   73           1
 -4  TOSTRAIN    6    1
 -5  EXX         1    4    1    1
 -5  EYY         1    4    2    2
 -5  EZZ         1    4    3    3
 -5  EXY         1    4    1    2
 -5  EYZ         1    4    2    3
 -5  EZX         1    4    3    1
 -1         1 0.00000E+00 0.00000E+00 1.99992E-03 0.00000E+00 4.12546E-19 7.19066E-19
 -1         2 0.00000E+00 0.00000E+00 1.99992E-03 0.00000E+00-6.48839E-19-8.08690E-19
 -1         3 0.00000E+00 0.00000E+00 1.99992E-03 0.00000E+00-1.00914E-19-1.19850E-18
 -1         4 0.00000E+00 0.00000E+00 1.99992E-03 0.00000E+00-2.30863E-19 1.76134E-18
 -1         5 0.00000E+00 0.00000E+00 1.99992E-03 0.00000E+00 2.96159E-19-2.53224E-19
 -1         6 0.00000E+00 0.00000E+00 1.99992E-03 0.00000E+00-2.13856E-19 8.66809E-21
 -1         7 0.00000E+00 0.00000E+00 1.99992E-03 0.00000E+00 1.93228E-18 1.41309E-18
 -1         8 0.00000E+00 0.00000E+00 1.99992E-03 0.00000E+00-2.93494E-21-3.76507E-19
 -1         9 0.00000E+00 0.00000E+00 2.00010E-03 0.00000E+00-4.18795E-19-2.04593E-19
 -1        10 0.00000E+00 0.00000E+00 2.00010E-03 0.00000E+00 4.40404E-19 3.85247E-19
 -1        11 0.00000E+00 0.00000E+00 2.00010E-03 0.00000E+00 2.54597E-19 2.23763E-19
 -1        12 0.00000E+00 0.00000E+00 2.00010E-03 0.00000E+00 2.42075E-19 1.71784E-19
 -1        13 0.00000E+00 0.00000E+00 2.00010E-03 0.00000E+00-1.72104E-19-2.53389E-20
 -1        14 0.00000E+00 0.00000E+00 2.00010E-03 0.00000E+00 4.10158E-19 8.94127E-20
 -1        15 0.00000E+00 0.00000E+00 2.00010E-03 0.00000E+00-1.16356E-18 2.49269E-19
 -1        16 0.00000E+00 0.00000E+00 2.00010E-03 0.00000E+00 4.45153E-19 4.17991E-19
 -1        17 0.00000E+00 0.00000E+00 2.00010E-03 0.00000E+00-4.86716E-20 2.27507E-19
 -1        18 0.00000E+00 0.00000E+00 2.00010E-03 0.00000E+00 6.09490E-19-7.85158E-19
 -1        19 0.00000E+00 0.00000E+00 2.00010E-03 0.00000E+00 5.23083E-19-1.12112E-19
 -1        20 0.00000E+00 0.00000E+00 2.00010E-03 0.00000E+00 2.30452E-19 4.46960E-19
 -3
    1PSTEP                       364          73           1          
  100CL  173 108493.0154          20                     0   73           1
 -4  FORC        4    1
 -5  F1          1    2    1    0
 -5  F2          1    2    2    0
 -5  F3          1    2    3    0
 -5  ALL         1    2    0    0    1ALL
 -1         1-1.42683E+01-1.42683E+01 2.14635E+01
 -1         2-1.42683E+01 1.42683E+01 2.14635E+01
 -1         3-1.42683E+01 1.42683E+01-2.14635E+01
 -1         4-1.42683E+01-1.42683E+01-2.14635E+01
 -1         5 1.42683E+01-1.42683E+01 2.14635E+01
 -1         6 1.42683E+01 1.42683E+01 2.14635E+01
 -1         7 1.42683E+01 1.42683E+01-2.14635E+01
 -1         8 1.42683E+01-1.42683E+01-2.14635E+01
 -1         9 5.70730E+01-8.91118E-15-8.58539E+01
 -1        10 5.70730E+01-5.70730E+01 7.10543E-15
 -1        11 5.70730E+01 6.91278E-15 8.58539E+01
 -1        12 5.70730E+01 5.70730E+01 2.32869E-14
 -1        13-1.96713E-14 5.70730E+01-8.58539E+01
 -1        14 2.50431E-15-5.70730E+01-8.58539E+01
 -1        15-1.61613E-15-5.70730E+01 8.58539E+01
 -1        16-4.64259E-15 5.70730E+01 8.58539E+01
 -1        17-5.70730E+01-2.22984E-15-8.58539E+01
 -1        18-5.70730E+01-5.70730E+01 0.00000E+00
 -1        19-5.70730E+01 3.78416E-15 8.58539E+01
 -1        20-5.70730E+01 5.70730E+01 4.21885E-15
 -3
    1PSTEP                       365          73           1          
  100CL  173 108493.0154          20                     0   73           1
 -4  ERROR       1    1
 -5  STR(%)      1    1    0    0
 -1         1 2.03197E-14
 -1         2 2.03197E-14
 -1         3 2.03197E-14
 -1         4 2.03197E-14
 -1         5 2.03197E-14
 -1         6 2.03197E-14
 -1         7 2.03197E-14
 -1         8 2.03197E-14
 -1         9 2.03197E-14
 -1        10 2.03197E-14
 -1        11 2.03197E-14
 -1        12 2.03197E-14
 -1        13 2.03197E-14
 -1        14 2.03197E-14
 -1        15 2.03197E-14
 -1        16 2.03197E-14
 -1        17 2.03197E-14
 -1        18 2.03197E-14
 -1        19 2.03197E-14
 -1        20 2.03197E-14
 -3
    1PSTEP                       366          74           1          
  100CL  174 111038.4106          20                     0   74           1
 -4  DISP        4    1
 -5  D1          1    2    1    0
 -5  D2          1    2    2    0
 -5  D3          1    2    3    0
 -5  ALL         1    2    0    0    1ALL
 -1         1 0.00000E+00 0.00000E+00 0.00000E+00
 -1         2 0.00000E+00 0.00000E+00 0.00000E+00
 -1         3 0.00000E+00 0.00000E+00 2.00000E-03
 -1         4 0.00000E+00 0.00000E+00 2.00000E-03
 -1         5 0.00000E+00 0.00000E+00 0.00000E+00
 -1         6 0.00000E+00 0.00000E+00 0.00000E+00
 -1         7 0.00000E+00 0.00000E+00 2.00000E-03
 -1         8 0.00000E+00 0.00000E+00 2.00000E-03
 -1         9 0.00000E+00 0.00000E+00 0.00000E+00
 -1        10 0.00000E+00 0.00000E+00 1.00000E-03
 -1        11 0.00000E+00 0.00000E+00 2.00000E-03
 -1        12 0.00000E+00 0.00000E+00 1.00000E-03
 -1        13 0.00000E+00 0.00000E+00 0.00000E+00
 -1        14 0.00000E+00 0.00000E+00 0.00000E+00
 -1        15 0.00000E+00 0.00000E+00 2.00000E-03
 -1        16 0.00000E+00 0.00000E+00 2.00000E-03
 -1        17 0.00000E+00 0.00000E+00 0.00000E+00
 -1        18 0.00000E+00 0.00000E+00 1.00000E-03
 -1        19 0.00000E+00 0.00000E+00 2.00000E-03
 -1        20 0.00000E+00 0.00000E+00 1.00000E-03
 -3
    1PSTEP                       367          74           1          
  100CL  174 111038.4106          20                     0   74           1
 -4  STRESS      6    1
 -5  SXX         1    4    1    1
 -5  SYY         1    4    2    2
 -5  SZZ         1    4    3    3
 -5  SXY         1    4    1    2
 -5  SYZ         1    4    2    3
 -5  SZX         1    4    3    1
 -1         1 1.71504E+02 1.71504E+02 2.56969E+02 0.00000E+00 1.76298E-14 3.07287E-14
 -1         2 1.71504E+02 1.71504E+02 2.56969E+02 0.00000E+00-2.77276E-14-3.45587E-14
 -1         3 1.71504E+02 1.71504E+02 2.56969E+02 0.00000E+00-4.31246E-15-5.12170E-14
 -1         4 1.71504E+02 1.71504E+02 2.56969E+02 0.00000E+00-9.86573E-15 7.52693E-14
 -1         5 1.71504E+02 1.71504E+02 2.56969E+02 0.00000E+00 1.26561E-14-1.08213E-14
 -1         6 1.71504E+02 1.71504E+02 2.56969E+02 0.00000E+00-9.13897E-15 3.70424E-16
 -1         7 1.71504E+02 1.71504E+02 2.56969E+02 0.00000E+00 8.25745E-14 6.03870E-14
 -1         8 1.71504E+02 1.71504E+02 2.56969E+02 0.00000E+00-1.25422E-16-1.60897E-14
 -1         9 1.71519E+02 1.71519E+02 2.56992E+02 0.00000E+00-1.78969E-14-8.74311E-15
 -1        10 1.71519E+02 1.71519E+02 2.56992E+02 0.00000E+00 1.88203E-14 1.64632E-14
 -1        11 1.71519E+02 1.71519E+02 2.56992E+02 0.00000E+00 1.08800E-14 9.56234E-15
 -1        12 1.71519E+02 1.71519E+02 2.56992E+02 0.00000E+00 1.03449E-14 7.34107E-15
 -1        13 1.71519E+02 1.71519E+02 2.56992E+02 0.00000E+00-7.35473E-15-1.08284E-15
 -1        14 1.71519E+02 1.71519E+02 2.56992E+02 0.00000E+00 1.75278E-14 3.82098E-15
 -1        15 1.71519E+02 1.71519E+02 2.56992E+02 0.00000E+00-4.97240E-14 1.06523E-14
 -1        16 1.71519E+02 1.71519E+02 2.56992E+02 0.00000E+00 1.90232E-14 1.78625E-14
 -1        17 1.71519E+02 1.71519E+02 2.56992E+02 0.00000E+00-2.07994E-15 9.72232E-15
 -1        18 1.71519E+02 1.71519E+02 2.56992E+02 0.00000E+00 2.60461E-14-3.35531E-14
 -1        19 1.71519E+02 1.71519E+02 2.56992E+02 0.00000E+00 2.23535E-14-4.79100E-15
 -1        20 1.71519E+02 1.71519E+02 2.56992E+02 0.00000E+00 9.84816E-15 1.91005E-14
 -3
    1PSTEP                       368          74           1          
  100CL  174 111038.4106          20                     0   74           1
 -4  TOSTRAIN    6    1
 -5  EXX         1    4    1    1
 -5  EYY         1    4    2    2
 -5  EZZ         1    4    3    3
 -5  EXY         1    4    1    2
 -5  EYZ         1    4    2    3
 -5  EZX         1    4    3    1
 -1         1 0.00000E+00 0.00000E+00 1.99992E-03 0.00000E+00 4.12546E-19 7.19066E-19
 -1         2 0.00000E+00 0.00000E+00 1.99992E-03 0.00000E+00-6.48839E-19-8.08690E-19
 -1         3 0.00000E+00 0.00000E+00 1.99992E-03 0.00000E+00-1.00914E-19-1.19850E-18
 -1         4 0.00000E+00 0.00000E+00 1.99992E-03 0.00000E+00-2.30863E-19 1.76134E-18
 -1         5 0.00000E+00 0.00000E+00 1.99992E-03 0.00000E+00 2.96159E-19-2.53224E-19
 -1         6 0.00000E+00 0.00000E+00 1.99992E-03 0.00000E+00-2.13856E-19 8.66809E-21
 -1         7 0.00000E+00 0.00000E+00 1.99992E-03 0.00000E+00 1.93228E-18 1.41309E-18
 -1         8 0.00000E+00 0.00000E+00 1.99992E-03 0.00000E+00-2.93494E-21-3.76507E-19
 -1         9 0.00000E+00 0.00000E+00 2.00010E-03 0.00000E+00-4.18795E-19-2.04593E-19
 -1        10 0.00000E+00 0.00000E+00 2.00010E-03 0.00000E+00 4.40404E-19 3.85247E-19
 -1        11 0.00000E+00 0.00000E+00 2.00010E-03 0.00000E+00 2.54597E-19 2.23763E-19
 -1        12 0.00000E+00 0.00000E+00 2.00010E-03 0.00000E+00 2.42075E-19 1.71784E-19
 -1        13 0.00000E+00 0.00000E+00 2.00010E-03 0.00000E+00-1.72104E-19-2.53389E-20
 -1        14 0.00000E+00 0.00000E+00 2.00010E-03 0.00000E+00 4.10158E-19 8.94127E-20
 -1        15 0.00000E+00 0.00000E+00 2.00010E-03 0.00000E+00-1.16356E-18 2.49269E-19
 -1        16 0.00000E+00 0.00000E+00 2.00010E-03 0.00000E+00 4.45153E-19 4.17991E-19
 -1        17 0.00000E+00 0.00000E+00 2.00010E-03 0.00000E+00-4.86716E-20 2.27507E-19
 -1        18 0.00000E+00 0.00000E+00 2.00010E-03 0.00000E+00 6.09490E-19-7.85158E-19
 -1        19 0.00000E+00 0.00000E+00 2.00010E-03 0.00000E+00 5.23083E-19-1.12112E-19
 -1        20 0.00000E+00 0.00000E+00 2.00010E-03 0.00000E+00 2.30452E-19 4.46960E-19
 -3
    1PSTEP                       369          74           1          
  100CL  174 111038.4106          20                     0   74           1
 -4  FORC        4    1
 -5  F1          1    2    1    0
 -5  F2          1    2    2    0
 -5  F3          1    2    3    0
 -5  ALL         1    2    0    0    1ALL
 -1         1-1.42925E+01-1.42925E+01 2.14149E+01
 -1         2-1.42925E+01 1.42925E+01 2.14149E+01
 -1         3-1.42925E+01 1.42925E+01-2.14149E+01
 -1         4-1.42925E+01-1.42925E+01-2.14149E+01
 -1         5 1.42925E+01-1.42925E+01 2.14149E+01
 -1         6 1.42925E+01 1.42925E+01 2.14149E+01
 -1         7 1.42925E+01 1.42925E+01-2.14149E+01
 -1         8 1.42925E+01-1.42925E+01-2.14149E+01
 -1         9 5.71702E+01-9.79906E-15-8.56596E+01
 -1        10 5.71702E+01-5.71702E+01 1.99840E-15
 -1        11 5.71702E+01 3.35977E-15 8.56596E+01
 -1        12 5.71702E+01 5.71702E+01 1.22125E-14
 -1        13 1.56192E-15 5.71702E+01-8.56596E+01
 -1        14 1.67168E-14-5.71702E+01-8.56596E+01
 -1        15-3.39411E-15-5.71702E+01 8.56596E+01
 -1        16-5.08688E-15 5.71702E+01 8.56596E+01
 -1        17-5.71702E+01-4.51142E-16-8.56596E+01
 -1        18-5.71702E+01-5.71702E+01 0.00000E+00
 -1        19-5.71702E+01 2.29098E-16 8.56596E+01
 -1        20-5.71702E+01 5.71702E+01 1.06581E-14
 -3
    1PSTEP                       370          74           1          
  100CL  174 111038.4106          20                     0   74           1
 -4  ERROR       1    1
 -5  STR(%)      1    1    0    0
 -1         1 1.35772E-14
 -1         2 1.35772E-14
 -1         3 1.35772E-14
 -1         4 1.35772E-14
 -1         5 1.35772E-14
 -1         6 1.35772E-14
 -1         7 1.35772E-14
 -1         8 1.35772E-14
 -1         9 1.35772E-14
 -1        10 1.35772E-14
 -1        11 1.35772E-14
 -1        12 1.35772E-14
 -1        13 1.35772E-14
 -1        14 1.35772E-14
 -1        15 1.35772E-14
 -1        16 1.35772E-14
 -1        17 1.35772E-14
 -1        18 1.35772E-14
 -1        19 1.35772E-14
 -1        20 1.35772E-14
 -3
    1PSTEP                       371          75           1          
  100CL  175 112675.4496          20                     0   75           1
 -4  DISP        4    1
 -5  D1          1    2    1    0
 -5  D2          1    2    2    0
 -5  D3          1    2    3    0
 -5  ALL         1    2    0    0    1ALL
 -1         1 0.00000E+00 0.00000E+00 0.00000E+00
 -1         2 0.00000E+00 0.00000E+00 0.00000E+00
 -1         3 0.00000E+00 0.00000E+00 2.00000E-03
 -1         4 0.00000E+00 0.00000E+00 2.00000E-03
 -1         5 0.00000E+00 0.00000E+00 0.00000E+00
 -1         6 0.00000E+00 0.00000E+00 0.00000E+00
 -1         7 0.00000E+00 0.00000E+00 2.00000E-03
 -1         8 0.00000E+00 0.00000E+00 2.00000E-03
 -1         9 0.00000E+00 0.00000E+00 0.00000E+00
 -1        10 0.00000E+00 0.00000E+00 1.00000E-03
 -1        11 0.00000E+00 0.00000E+00 2.00000E-03
 -1        12 0.00000E+00 0.00000E+00 1.00000E-03
 -1        13 0.00000E+00 0.00000E+00 0.00000E+00
 -1        14 0.00000E+00 0.00000E+00 0.00000E+00
 -1        15 0.00000E+00 0.00000E+00 2.00000E-03
 -1        16 0.00000E+00 0.00000E+00 2.00000E-03
 -1        17 0.00000E+00 0.00000E+00 0.00000E+00
 -1        18 0.00000E+00 0.00000E+00 1.00000E-03
 -1        19 0.00000E+00 0.00000E+00 2.00000E-03
 -1        20 0.00000E+00 0.00000E+00 1.00000E-03
 -3
    1PSTEP                       372          75           1          
  100CL  175 112675.4496          20                     0   75           1
 -4  STRESS      6    1
 -5  SXX         1    4    1    1
 -5  SYY         1    4    2    2
 -5  SZZ         1    4    3    3
 -5  SXY         1    4    1    2
 -5  SYZ         1    4    2    3
 -5  SZX         1    4    3    1
 -1         1 1.71690E+02 1.71690E+02 2.56596E+02 0.00000E+00 1.75146E-14 3.05278E-14
 -1         2 1.71690E+02 1.71690E+02 2.56596E+02 0.00000E+00-2.75463E-14-3.43328E-14
 -1         3 1.71690E+02 1.71690E+02 2.56596E+02 0.00000E+00-4.28427E-15-5.08822E-14
 -1         4 1.71690E+02 1.71690E+02 2.56596E+02 0.00000E+00-9.80124E-15 7.47772E-14
 -1         5 1.71690E+02 1.71690E+02 2.56596E+02 0.00000E+00 1.25734E-14-1.07506E-14
 -1         6 1.71690E+02 1.71690E+02 2.56596E+02 0.00000E+00-9.07923E-15 3.68002E-16
 -1         7 1.71690E+02 1.71690E+02 2.56596E+02 0.00000E+00 8.20347E-14 5.99923E-14
 -1         8 1.71690E+02 1.71690E+02 2.56596E+02 0.00000E+00-1.24602E-16-1.59845E-14
 -1         9 1.71705E+02 1.71705E+02 2.56619E+02 0.00000E+00-1.77799E-14-8.68596E-15
 -1        10 1.71705E+02 1.71705E+02 2.56619E+02 0.00000E+00 1.86973E-14 1.63556E-14
 -1        11 1.71705E+02 1.71705E+02 2.56619E+02 0.00000E+00 1.08089E-14 9.49983E-15
 -1        12 1.71705E+02 1.71705E+02 2.56619E+02 0.00000E+00 1.02772E-14 7.29308E-15
 -1        13 1.71705E+02 1.71705E+02 2.56619E+02 0.00000E+00-7.30665E-15-1.07576E-15
 -1        14 1.71705E+02 1.71705E+02 2.56619E+02 0.00000E+00 1.74132E-14 3.79600E-15
 -1        15 1.71705E+02 1.71705E+02 2.56619E+02 0.00000E+00-4.93989E-14 1.05827E-14
 -1        16 1.71705E+02 1.71705E+02 2.56619E+02 0.00000E+00 1.88989E-14 1.77457E-14
 -1        17 1.71705E+02 1.71705E+02 2.56619E+02 0.00000E+00-2.06634E-15 9.65877E-15
 -1        18 1.71705E+02 1.71705E+02 2.56619E+02 0.00000E+00 2.58758E-14-3.33337E-14
 -1        19 1.71705E+02 1.71705E+02 2.56619E+02 0.00000E+00 2.22074E-14-4.75968E-15
 -1        20 1.71705E+02 1.71705E+02 2.56619E+02 0.00000E+00 9.78378E-15 1.89756E-14
 -3
    1PSTEP                       373          75           1          
  100CL  175 112675.4496          20                     0   75           1
 -4  TOSTRAIN    6    1
 -5  EXX         1    4    1    1
 -5  EYY         1    4    2    2
 -5  EZZ         1    4    3    3
 -5  EXY         1    4    1    2
 -5  EYZ         1    4    2    3
 -5  EZX         1    4    3    1
 -1         1 0.00000E+00 0.00000E+00 1.99992E-03 0.00000E+00 4.12546E-19 7.19066E-19
 -1         2 0.00000E+00 0.00000E+00 1.99992E-03 0.00000E+00-6.48839E-19-8.08690E-19
 -1         3 0.00000E+00 0.00000E+00 1.99992E-03 0.00000E+00-1.00914E-19-1.19850E-18
 -1         4 0.00000E+00 0.00000E+00 1.99992E-03 0.00000E+00-2.30863E-19 1.76134E-18
 -1         5 0.00000E+00 0.00000E+00 1.99992E-03 0.00000E+00 2.96159E-19-2.53224E-19
 -1         6 0.00000E+00 0.00000E+00 1.99992E-03 0.00000E+00-2.13856E-19 8.66809E-21
 -1         7 0.00000E+00 0.00000E+00 1.99992E-03 0.00000E+00 1.93228E-18 1.41309E-18
 -1         8 0.00000E+00 0.00000E+00 1.99992E-03 0.00000E+00-2.93494E-21-3.76507E-19
 -1         9 0.00000E+00 0.00000E+00 2.00010E-03 0.00000E+00-4.18795E-19-2.04593E-19
 -1        10 0.00000E+00 0.00000E+00 2.00010E-03 0.00000E+00 4.40404E-19 3.85247E-19
 -1        11 0.00000E+00 0.00000E+00 2.00010E-03 0.00000E+00 2.54597E-19 2.23763E-19
 -1        12 0.00000E+00 0.00000E+00 2.00010E-03 0.00000E+00 2.42075E-19 1.71784E-19
 -1        13 0.00000E+00 0.00000E+00 2.00010E-03 0.00000E+00-1.72104E-19-2.53389E-20
 -1        14 0.00000E+00 0.00000E+00 2.00010E-03 0.00000E+00 4.10158E-19 8.94127E-20
 -1        15 0.00000E+00 0.00000E+00 2.00010E-03 0.00000E+00-1.16356E-18 2.49269E-19
 -1        16 0.00000E+00 0.00000E+00 2.00010E-03 0.00000E+00 4.45153E-19 4.17991E-19
 -1        17 0.00000E+00 0.00000E+00 2.00010E-03 0.00000E+00-4.86716E-20 2.27507E-19
 -1        18 0.00000E+00 0.00000E+00 2.00010E-03 0.00000E+00 6.09490E-19-7.85158E-19
 -1        19 0.00000E+00 0.00000E+00 2.00010E-03 0.00000E+00 5.23083E-19-1.12112E-19
 -1        20 0.00000E+00 0.00000E+00 2.00010E-03 0.00000E+00 2.30452E-19 4.46960E-19
 -3
    1PSTEP                       374          75           1          
  100CL  175 112675.4496          20                     0   75           1
 -4  FORC        4    1
 -5  F1          1    2    1    0
 -5  F2          1    2    2    0
 -5  F3          1    2    3    0
 -5  ALL         1    2    0    0    1ALL
 -1         1-1.43081E+01-1.43081E+01 2.13839E+01
 -1         2-1.43081E+01 1.43081E+01 2.13839E+01
 -1         3-1.43081E+01 1.43081E+01-2.13839E+01
 -1         4-1.43081E+01-1.43081E+01-2.13839E+01
 -1         5 1.43081E+01-1.43081E+01 2.13839E+01
 -1         6 1.43081E+01 1.43081E+01 2.13839E+01
 -1         7 1.43081E+01 1.43081E+01-2.13839E+01
 -1         8 1.43081E+01-1.43081E+01-2.13839E+01
 -1         9 5.72323E+01-7.13434E-15-8.55355E+01
 -1        10 5.72323E+01-5.72323E+01 7.54952E-15
 -1        11 5.72323E+01 5.13594E-15 8.55355E+01
 -1        12 5.72323E+01 5.72323E+01 2.40086E-14
 -1        13-4.87724E-15 5.72323E+01-8.55355E+01
 -1        14 1.33872E-14-5.72323E+01-8.55355E+01
 -1        15 1.57569E-16-5.72323E+01 8.55355E+01
 -1        16-1.97839E-15 5.72323E+01 8.55355E+01
 -1        17-5.72323E+01-2.22600E-15-8.55355E+01
 -1        18-5.72323E+01-5.72323E+01 3.55271E-15
 -1        19-5.72323E+01 2.00396E-15 8.55355E+01
 -1        20-5.72323E+01 5.72323E+01 4.21885E-15
 -3
    1PSTEP                       375          75           1          
  100CL  175 112675.4496          20                     0   75           1
 -4  ERROR       1    1
 -5  STR(%)      1    1    0    0
 -1         1 2.15284E-14
 -1         2 2.15284E-14
 -1         3 2.15284E-14
 -1         4 2.15284E-14
 -1         5 2.15284E-14
 -1         6 2.15284E-14
 -1         7 2.15284E-14
 -1         8 2.15284E-14
 -1         9 2.15284E-14
 -1        10 2.15284E-14
 -1        11 2.15284E-14
 -1        12 2.15284E-14
 -1        13 2.15284E-14
 -1        14 2.15284E-14
 -1        15 2.15284E-14
 -1        16 2.15284E-14
 -1        17 2.15284E-14
 -1        18 2.15284E-14
 -1        19 2.15284E-14
 -1        20 2.15284E-14
 -3
    1PSTEP                       376          76           1          
  100CL  176 114312.4886          20                     0   76           1
 -4  DISP        4    1
 -5  D1          1    2    1    0
 -5  D2          1    2    2    0
 -5  D3          1    2    3    0
 -5  ALL         1    2    0    0    1ALL
 -1         1 0.00000E+00 0.00000E+00 0.00000E+00
 -1         2 0.00000E+00 0.00000E+00 0.00000E+00
 -1         3 0.00000E+00 0.00000E+00 2.00000E-03
 -1         4 0.00000E+00 0.00000E+00 2.00000E-03
 -1         5 0.00000E+00 0.00000E+00 0.00000E+00
 -1         6 0.00000E+00 0.00000E+00 0.00000E+00
 -1         7 0.00000E+00 0.00000E+00 2.00000E-03
 -1         8 0.00000E+00 0.00000E+00 2.00000E-03
 -1         9 0.00000E+00 0.00000E+00 0.00000E+00
 -1        10 0.00000E+00 0.00000E+00 1.00000E-03
 -1        11 0.00000E+00 0.00000E+00 2.00000E-03
 -1        12 0.00000E+00 0.00000E+00 1.00000E-03
 -1        13 0.00000E+00 0.00000E+00 0.00000E+00
 -1        14 0.00000E+00 0.00000E+00 0.00000E+00
 -1        15 0.00000E+00 0.00000E+00 2.00000E-03
 -1        16 0.00000E+00 0.00000E+00 2.00000E-03
 -1        17 0.00000E+00 0.00000E+00 0.00000E+00
 -1        18 0.00000E+00 0.00000E+00 1.00000E-03
 -1        19 0.00000E+00 0.00000E+00 2.00000E-03
 -1        20 0.00000E+00 0.00000E+00 1.00000E-03
 -3
    1PSTEP                       377          76           1          
  100CL  176 114312.4886          20                     0   76           1
 -4  STRESS      6    1
 -5  SXX         1    4    1    1
 -5  SYY         1    4    2    2
 -5  SZZ         1    4    3    3
 -5  SXY         1    4    1    2
 -5  SYZ         1    4    2    3
 -5  SZX         1    4    3    1
 -1         1 1.71875E+02 1.71875E+02 2.56226E+02 0.00000E+00 1.74001E-14 3.03282E-14
 -1         2 1.71875E+02 1.71875E+02 2.56226E+02 0.00000E+00-2.73663E-14-3.41083E-14
 -1         3 1.71875E+02 1.71875E+02 2.56226E+02 0.00000E+00-4.25627E-15-5.05496E-14
 -1         4 1.71875E+02 1.71875E+02 2.56226E+02 0.00000E+00-9.73717E-15 7.42884E-14
 -1         5 1.71875E+02 1.71875E+02 2.56226E+02 0.00000E+00 1.24912E-14-1.06803E-14
 -1         6 1.71875E+02 1.71875E+02 2.56226E+02 0.00000E+00-9.01988E-15 3.65597E-16
 -1         7 1.71875E+02 1.71875E+02 2.56226E+02 0.00000E+00 8.14984E-14 5.96001E-14
 -1         8 1.71875E+02 1.71875E+02 2.56226E+02 0.00000E+00-1.23788E-16-1.58800E-14
 -1         9 1.71890E+02 1.71890E+02 2.56249E+02 0.00000E+00-1.76636E-14-8.62918E-15
 -1        10 1.71890E+02 1.71890E+02 2.56249E+02 0.00000E+00 1.85751E-14 1.62487E-14
 -1        11 1.71890E+02 1.71890E+02 2.56249E+02 0.00000E+00 1.07382E-14 9.43773E-15
 -1        12 1.71890E+02 1.71890E+02 2.56249E+02 0.00000E+00 1.02101E-14 7.24540E-15
 -1        13 1.71890E+02 1.71890E+02 2.56249E+02 0.00000E+00-7.25889E-15-1.06873E-15
 -1        14 1.71890E+02 1.71890E+02 2.56249E+02 0.00000E+00 1.72994E-14 3.77119E-15
 -1        15 1.71890E+02 1.71890E+02 2.56249E+02 0.00000E+00-4.90760E-14 1.05135E-14
 -1        16 1.71890E+02 1.71890E+02 2.56249E+02 0.00000E+00 1.87753E-14 1.76297E-14
 -1        17 1.71890E+02 1.71890E+02 2.56249E+02 0.00000E+00-2.05284E-15 9.59563E-15
 -1        18 1.71890E+02 1.71890E+02 2.56249E+02 0.00000E+00 2.57067E-14-3.31158E-14
 -1        19 1.71890E+02 1.71890E+02 2.56249E+02 0.00000E+00 2.20622E-14-4.72857E-15
 -1        20 1.71890E+02 1.71890E+02 2.56249E+02 0.00000E+00 9.71982E-15 1.88516E-14
 -3
    1PSTEP                       378          76           1          
  100CL  176 114312.4886          20                     0   76           1
 -4  TOSTRAIN    6    1
 -5  EXX         1    4    1    1
 -5  EYY         1    4    2    2
 -5  EZZ         1    4    3    3
 -5  EXY         1    4    1    2
 -5  EYZ         1    4    2    3
 -5  EZX         1    4    3    1
 -1         1 0.00000E+00 0.00000E+00 1.99992E-03 0.00000E+00 4.12546E-19 7.19066E-19
 -1         2 0.00000E+00 0.00000E+00 1.99992E-03 0.00000E+00-6.48839E-19-8.08690E-19
 -1         3 0.00000E+00 0.00000E+00 1.99992E-03 0.00000E+00-1.00914E-19-1.19850E-18
 -1         4 0.00000E+00 0.00000E+00 1.99992E-03 0.00000E+00-2.30863E-19 1.76134E-18
 -1         5 0.00000E+00 0.00000E+00 1.99992E-03 0.00000E+00 2.96159E-19-2.53224E-19
 -1         6 0.00000E+00 0.00000E+00 1.99992E-03 0.00000E+00-2.13856E-19 8.66809E-21
 -1         7 0.00000E+00 0.00000E+00 1.99992E-03 0.00000E+00 1.93228E-18 1.41309E-18
 -1         8 0.00000E+00 0.00000E+00 1.99992E-03 0.00000E+00-2.93494E-21-3.76507E-19
 -1         9 0.00000E+00 0.00000E+00 2.00010E-03 0.00000E+00-4.18795E-19-2.04593E-19
 -1        10 0.00000E+00 0.00000E+00 2.00010E-03 0.00000E+00 4.40404E-19 3.85247E-19
 -1        11 0.00000E+00 0.00000E+00 2.00010E-03 0.00000E+00 2.54597E-19 2.23763E-19
 -1        12 0.00000E+00 0.00000E+00 2.00010E-03 0.00000E+00 2.42075E-19 1.71784E-19
 -1        13 0.00000E+00 0.00000E+00 2.00010E-03 0.00000E+00-1.72104E-19-2.53389E-20
 -1        14 0.00000E+00 0.00000E+00 2.00010E-03 0.00000E+00 4.10158E-19 8.94127E-20
 -1        15 0.00000E+00 0.00000E+00 2.00010E-03 0.00000E+00-1.16356E-18 2.49269E-19
 -1        16 0.00000E+00 0.00000E+00 2.00010E-03 0.00000E+00 4.45153E-19 4.17991E-19
 -1        17 0.00000E+00 0.00000E+00 2.00010E-03 0.00000E+00-4.86716E-20 2.27507E-19
 -1        18 0.00000E+00 0.00000E+00 2.00010E-03 0.00000E+00 6.09490E-19-7.85158E-19
 -1        19 0.00000E+00 0.00000E+00 2.00010E-03 0.00000E+00 5.23083E-19-1.12112E-19
 -1        20 0.00000E+00 0.00000E+00 2.00010E-03 0.00000E+00 2.30452E-19 4.46960E-19
 -3
    1PSTEP                       379          76           1          
  100CL  176 114312.4886          20                     0   76           1
 -4  FORC        4    1
 -5  F1          1    2    1    0
 -5  F2          1    2    2    0
 -5  F3          1    2    3    0
 -5  ALL         1    2    0    0    1ALL
 -1         1-1.43235E+01-1.43235E+01 2.13530E+01
 -1         2-1.43235E+01 1.43235E+01 2.13530E+01
 -1         3-1.43235E+01 1.43235E+01-2.13530E+01
 -1         4-1.43235E+01-1.43235E+01-2.13530E+01
 -1         5 1.43235E+01-1.43235E+01 2.13530E+01
 -1         6 1.43235E+01 1.43235E+01 2.13530E+01
 -1         7 1.43235E+01 1.43235E+01-2.13530E+01
 -1         8 1.43235E+01-1.43235E+01-2.13530E+01
 -1         9 5.72939E+01-4.91370E-15-8.54121E+01
 -1        10 5.72939E+01-5.72939E+01 1.99840E-15
 -1        11 5.72939E+01 2.02712E-15 8.54121E+01
 -1        12 5.72939E+01 5.72939E+01 8.57647E-15
 -1        13-8.45758E-15 5.72939E+01-8.54121E+01
 -1        14 1.05016E-14-5.72939E+01-8.54121E+01
 -1        15 7.26197E-15-5.72939E+01 8.54121E+01
 -1        16 9.12371E-15 5.72939E+01 8.54121E+01
 -1        17-5.72939E+01-4.48157E-16-8.54121E+01
 -1        18-5.72939E+01-5.72939E+01 1.77636E-15
 -1        19-5.72939E+01-1.55024E-15 8.54121E+01
 -1        20-5.72939E+01 5.72939E+01 5.10703E-15
 -3
    1PSTEP                       380          76           1          
  100CL  176 114312.4886          20                     0   76           1
 -4  ERROR       1    1
 -5  STR(%)      1    1    0    0
 -1         1 7.94297E-15
 -1         2 7.94297E-15
 -1         3 7.94297E-15
 -1         4 7.94297E-15
 -1         5 7.94297E-15
 -1         6 7.94297E-15
 -1         7 7.94297E-15
 -1         8 7.94297E-15
 -1         9 7.94297E-15
 -1        10 7.94297E-15
 -1        11 7.94297E-15
 -1        12 7.94297E-15
 -1        13 7.94297E-15
 -1        14 7.94297E-15
 -1        15 7.94297E-15
 -1        16 7.94297E-15
 -1        17 7.94297E-15
 -1        18 7.94297E-15
 -1        19 7.94297E-15
 -1        20 7.94297E-15
 -3
    1PSTEP                       381          77           1          
  100CL  177 116768.0471          20                     0   77           1
 -4  DISP        4    1
 -5  D1          1    2    1    0
 -5  D2          1    2    2    0
 -5  D3          1    2    3    0
 -5  ALL         1    2    0    0    1ALL
 -1         1 0.00000E+00 0.00000E+00 0.00000E+00
 -1         2 0.00000E+00 0.00000E+00 0.00000E+00
 -1         3 0.00000E+00 0.00000E+00 2.00000E-03
 -1         4 0.00000E+00 0.00000E+00 2.00000E-03
 -1         5 0.00000E+00 0.00000E+00 0.00000E+00
 -1         6 0.00000E+00 0.00000E+00 0.00000E+00
 -1         7 0.00000E+00 0.00000E+00 2.00000E-03
 -1         8 0.00000E+00 0.00000E+00 2.00000E-03
 -1         9 0.00000E+00 0.00000E+00 0.00000E+00
 -1        10 0.00000E+00 0.00000E+00 1.00000E-03
 -1        11 0.00000E+00 0.00000E+00 2.00000E-03
 -1        12 0.00000E+00 0.00000E+00 1.00000E-03
 -1        13 0.00000E+00 0.00000E+00 0.00000E+00
 -1        14 0.00000E+00 0.00000E+00 0.00000E+00
 -1        15 0.00000E+00 0.00000E+00 2.00000E-03
 -1        16 0.00000E+00 0.00000E+00 2.00000E-03
 -1        17 0.00000E+00 0.00000E+00 0.00000E+00
 -1        18 0.00000E+00 0.00000E+00 1.00000E-03
 -1        19 0.00000E+00 0.00000E+00 2.00000E-03
 -1        20 0.00000E+00 0.00000E+00 1.00000E-03
 -3
    1PSTEP                       382          77           1          
  100CL  177 116768.0471          20                     0   77           1
 -4  STRESS      6    1
 -5  SXX         1    4    1    1
 -5  SYY         1    4    2    2
 -5  SZZ         1    4    3    3
 -5  SXY         1    4    1    2
 -5  SYZ         1    4    2    3
 -5  SZX         1    4    3    1
 -1         1 1.72150E+02 1.72150E+02 2.55677E+02 0.00000E+00 1.72300E-14 3.00318E-14
 -1         2 1.72150E+02 1.72150E+02 2.55677E+02 0.00000E+00-2.70988E-14-3.37750E-14
 -1         3 1.72150E+02 1.72150E+02 2.55677E+02 0.00000E+00-4.21467E-15-5.00555E-14
 -1         4 1.72150E+02 1.72150E+02 2.55677E+02 0.00000E+00-9.64200E-15 7.35624E-14
 -1         5 1.72150E+02 1.72150E+02 2.55677E+02 0.00000E+00 1.23691E-14-1.05759E-14
 -1         6 1.72150E+02 1.72150E+02 2.55677E+02 0.00000E+00-8.93172E-15 3.62024E-16
 -1         7 1.72150E+02 1.72150E+02 2.55677E+02 0.00000E+00 8.07019E-14 5.90176E-14
 -1         8 1.72150E+02 1.72150E+02 2.55677E+02 0.00000E+00-1.22578E-16-1.57248E-14
 -1         9 1.72165E+02 1.72165E+02 2.55700E+02 0.00000E+00-1.74910E-14-8.54484E-15
 -1        10 1.72165E+02 1.72165E+02 2.55700E+02 0.00000E+00 1.83935E-14 1.60899E-14
 -1        11 1.72165E+02 1.72165E+02 2.55700E+02 0.00000E+00 1.06332E-14 9.34549E-15
 -1        12 1.72165E+02 1.72165E+02 2.55700E+02 0.00000E+00 1.01103E-14 7.17459E-15
 -1        13 1.72165E+02 1.72165E+02 2.55700E+02 0.00000E+00-7.18794E-15-1.05828E-15
 -1        14 1.72165E+02 1.72165E+02 2.55700E+02 0.00000E+00 1.71303E-14 3.73433E-15
 -1        15 1.72165E+02 1.72165E+02 2.55700E+02 0.00000E+00-4.85964E-14 1.04107E-14
 -1        16 1.72165E+02 1.72165E+02 2.55700E+02 0.00000E+00 1.85918E-14 1.74574E-14
 -1        17 1.72165E+02 1.72165E+02 2.55700E+02 0.00000E+00-2.03277E-15 9.50185E-15
 -1        18 1.72165E+02 1.72165E+02 2.55700E+02 0.00000E+00 2.54554E-14-3.27922E-14
 -1        19 1.72165E+02 1.72165E+02 2.55700E+02 0.00000E+00 2.18466E-14-4.68235E-15
 -1        20 1.72165E+02 1.72165E+02 2.55700E+02 0.00000E+00 9.62483E-15 1.86673E-14
 -3
    1PSTEP                       383          77           1          
  100CL  177 116768.0471          20                     0   77           1
 -4  TOSTRAIN    6    1
 -5  EXX         1    4    1    1
 -5  EYY         1    4    2    2
 -5  EZZ         1    4    3    3
 -5  EXY         1    4    1    2
 -5  EYZ         1    4    2    3
 -5  EZX         1    4    3    1
 -1         1 0.00000E+00 0.00000E+00 1.99992E-03 0.00000E+00 4.12546E-19 7.19066E-19
 -1         2 0.00000E+00 0.00000E+00 1.99992E-03 0.00000E+00-6.48839E-19-8.08690E-19
 -1         3 0.00000E+00 0.00000E+00 1.99992E-03 0.00000E+00-1.00914E-19-1.19850E-18
 -1         4 0.00000E+00 0.00000E+00 1.99992E-03 0.00000E+00-2.30863E-19 1.76134E-18
 -1         5 0.00000E+00 0.00000E+00 1.99992E-03 0.00000E+00 2.96159E-19-2.53224E-19
 -1         6 0.00000E+00 0.00000E+00 1.99992E-03 0.00000E+00-2.13856E-19 8.66809E-21
 -1         7 0.00000E+00 0.00000E+00 1.99992E-03 0.00000E+00 1.93228E-18 1.41309E-18
 -1         8 0.00000E+00 0.00000E+00 1.99992E-03 0.00000E+00-2.93494E-21-3.76507E-19
 -1         9 0.00000E+00 0.00000E+00 2.00010E-03 0.00000E+00-4.18795E-19-2.04593E-19
 -1        10 0.00000E+00 0.00000E+00 2.00010E-03 0.00000E+00 4.40404E-19 3.85247E-19
 -1        11 0.00000E+00 0.00000E+00 2.00010E-03 0.00000E+00 2.54597E-19 2.23763E-19
 -1        12 0.00000E+00 0.00000E+00 2.00010E-03 0.00000E+00 2.42075E-19 1.71784E-19
 -1        13 0.00000E+00 0.00000E+00 2.00010E-03 0.00000E+00-1.72104E-19-2.53389E-20
 -1        14 0.00000E+00 0.00000E+00 2.00010E-03 0.00000E+00 4.10158E-19 8.94127E-20
 -1        15 0.00000E+00 0.00000E+00 2.00010E-03 0.00000E+00-1.16356E-18 2.49269E-19
 -1        16 0.00000E+00 0.00000E+00 2.00010E-03 0.00000E+00 4.45153E-19 4.17991E-19
 -1        17 0.00000E+00 0.00000E+00 2.00010E-03 0.00000E+00-4.86716E-20 2.27507E-19
 -1        18 0.00000E+00 0.00000E+00 2.00010E-03 0.00000E+00 6.09490E-19-7.85158E-19
 -1        19 0.00000E+00 0.00000E+00 2.00010E-03 0.00000E+00 5.23083E-19-1.12112E-19
 -1        20 0.00000E+00 0.00000E+00 2.00010E-03 0.00000E+00 2.30452E-19 4.46960E-19
 -3
    1PSTEP                       384          77           1          
  100CL  177 116768.0471          20                     0   77           1
 -4  FORC        4    1
 -5  F1          1    2    1    0
 -5  F2          1    2    2    0
 -5  F3          1    2    3    0
 -5  ALL         1    2    0    0    1ALL
 -1         1-1.43464E+01-1.43464E+01 2.13072E+01
 -1         2-1.43464E+01 1.43464E+01 2.13072E+01
 -1         3-1.43464E+01 1.43464E+01-2.13072E+01
 -1         4-1.43464E+01-1.43464E+01-2.13072E+01
 -1         5 1.43464E+01-1.43464E+01 2.13072E+01
 -1         6 1.43464E+01 1.43464E+01 2.13072E+01
 -1         7 1.43464E+01 1.43464E+01-2.13072E+01
 -1         8 1.43464E+01-1.43464E+01-2.13072E+01
 -1         9 5.73855E+01-8.68818E-15-8.52289E+01
 -1        10 5.73855E+01-5.73855E+01 9.10383E-15
 -1        11 5.73855E+01 5.35751E-15 8.52289E+01
 -1        12 5.73855E+01 5.73855E+01 2.09832E-14
 -1        13-8.84596E-15 5.73855E+01-8.52289E+01
 -1        14 8.50473E-15-5.73855E+01-8.52289E+01
 -1        15 3.70772E-15-5.73855E+01 8.52289E+01
 -1        16-7.97392E-15 5.73855E+01 8.52289E+01
 -1        17-5.73855E+01-3.99866E-15-8.52289E+01
 -1        18-5.73855E+01-5.73855E+01 3.55271E-15
 -1        19-5.73855E+01-1.55245E-15 8.52289E+01
 -1        20-5.73855E+01 5.73855E+01-4.44089E-16
 -3
    1PSTEP                       385          77           1          
  100CL  177 116768.0471          20                     0   77           1
 -4  ERROR       1    1
 -5  STR(%)      1    1    0    0
 -1         1 2.95659E-14
 -1         2 2.95659E-14
 -1         3 2.95659E-14
 -1         4 2.95659E-14
 -1         5 2.95659E-14
 -1         6 2.95659E-14
 -1         7 2.95659E-14
 -1         8 2.95659E-14
 -1         9 2.95659E-14
 -1        10 2.95659E-14
 -1        11 2.95659E-14
 -1        12 2.95659E-14
 -1        13 2.95659E-14
 -1        14 2.95659E-14
 -1        15 2.95659E-14
 -1        16 2.95659E-14
 -1        17 2.95659E-14
 -1        18 2.95659E-14
 -1        19 2.95659E-14
 -1        20 2.95659E-14
 -3
    1PSTEP                       386          78           1          
  100CL  178 118503.4253          20                     0   78           1
 -4  DISP        4    1
 -5  D1          1    2    1    0
 -5  D2          1    2    2    0
 -5  D3          1    2    3    0
 -5  ALL         1    2    0    0    1ALL
 -1         1 0.00000E+00 0.00000E+00 0.00000E+00
 -1         2 0.00000E+00 0.00000E+00 0.00000E+00
 -1         3 0.00000E+00 0.00000E+00 2.00000E-03
 -1         4 0.00000E+00 0.00000E+00 2.00000E-03
 -1         5 0.00000E+00 0.00000E+00 0.00000E+00
 -1         6 0.00000E+00 0.00000E+00 0.00000E+00
 -1         7 0.00000E+00 0.00000E+00 2.00000E-03
 -1         8 0.00000E+00 0.00000E+00 2.00000E-03
 -1         9 0.00000E+00 0.00000E+00 0.00000E+00
 -1        10 0.00000E+00 0.00000E+00 1.00000E-03
 -1        11 0.00000E+00 0.00000E+00 2.00000E-03
 -1        12 0.00000E+00 0.00000E+00 1.00000E-03
 -1        13 0.00000E+00 0.00000E+00 0.00000E+00
 -1        14 0.00000E+00 0.00000E+00 0.00000E+00
 -1        15 0.00000E+00 0.00000E+00 2.00000E-03
 -1        16 0.00000E+00 0.00000E+00 2.00000E-03
 -1        17 0.00000E+00 0.00000E+00 0.00000E+00
 -1        18 0.00000E+00 0.00000E+00 1.00000E-03
 -1        19 0.00000E+00 0.00000E+00 2.00000E-03
 -1        20 0.00000E+00 0.00000E+00 1.00000E-03
 -3
    1PSTEP                       387          78           1          
  100CL  178 118503.4253          20                     0   78           1
 -4  STRESS      6    1
 -5  SXX         1    4    1    1
 -5  SYY         1    4    2    2
 -5  SZZ         1    4    3    3
 -5  SXY         1    4    1    2
 -5  SYZ         1    4    2    3
 -5  SZX         1    4    3    1
 -1         1 1.72343E+02 1.72343E+02 2.55291E+02 0.00000E+00 1.71107E-14 2.98238E-14
 -1         2 1.72343E+02 1.72343E+02 2.55291E+02 0.00000E+00-2.69111E-14-3.35410E-14
 -1         3 1.72343E+02 1.72343E+02 2.55291E+02 0.00000E+00-4.18547E-15-4.97088E-14
 -1         4 1.72343E+02 1.72343E+02 2.55291E+02 0.00000E+00-9.57521E-15 7.30528E-14
 -1         5 1.72343E+02 1.72343E+02 2.55291E+02 0.00000E+00 1.22834E-14-1.05027E-14
 -1         6 1.72343E+02 1.72343E+02 2.55291E+02 0.00000E+00-8.86985E-15 3.59516E-16
 -1         7 1.72343E+02 1.72343E+02 2.55291E+02 0.00000E+00 8.01429E-14 5.86088E-14
 -1         8 1.72343E+02 1.72343E+02 2.55291E+02 0.00000E+00-1.21729E-16-1.56159E-14
 -1         9 1.72358E+02 1.72358E+02 2.55314E+02 0.00000E+00-1.73699E-14-8.48565E-15
 -1        10 1.72358E+02 1.72358E+02 2.55314E+02 0.00000E+00 1.82661E-14 1.59784E-14
 -1        11 1.72358E+02 1.72358E+02 2.55314E+02 0.00000E+00 1.05596E-14 9.28076E-15
 -1        12 1.72358E+02 1.72358E+02 2.55314E+02 0.00000E+00 1.00402E-14 7.12489E-15
 -1        13 1.72358E+02 1.72358E+02 2.55314E+02 0.00000E+00-7.13815E-15-1.05095E-15
 -1        14 1.72358E+02 1.72358E+02 2.55314E+02 0.00000E+00 1.70116E-14 3.70846E-15
 -1        15 1.72358E+02 1.72358E+02 2.55314E+02 0.00000E+00-4.82598E-14 1.03386E-14
 -1        16 1.72358E+02 1.72358E+02 2.55314E+02 0.00000E+00 1.84631E-14 1.73365E-14
 -1        17 1.72358E+02 1.72358E+02 2.55314E+02 0.00000E+00-2.01869E-15 9.43603E-15
 -1        18 1.72358E+02 1.72358E+02 2.55314E+02 0.00000E+00 2.52791E-14-3.25650E-14
 -1        19 1.72358E+02 1.72358E+02 2.55314E+02 0.00000E+00 2.16953E-14-4.64992E-15
 -1        20 1.72358E+02 1.72358E+02 2.55314E+02 0.00000E+00 9.55816E-15 1.85380E-14
 -3
    1PSTEP                       388          78           1          
  100CL  178 118503.4253          20                     0   78           1
 -4  TOSTRAIN    6    1
 -5  EXX         1    4    1    1
 -5  EYY         1    4    2    2
 -5  EZZ         1    4    3    3
 -5  EXY         1    4    1    2
 -5  EYZ         1    4    2    3
 -5  EZX         1    4    3    1
 -1         1 0.00000E+00 0.00000E+00 1.99992E-03 0.00000E+00 4.12546E-19 7.19066E-19
 -1         2 0.00000E+00 0.00000E+00 1.99992E-03 0.00000E+00-6.48839E-19-8.08690E-19
 -1         3 0.00000E+00 0.00000E+00 1.99992E-03 0.00000E+00-1.00914E-19-1.19850E-18
 -1         4 0.00000E+00 0.00000E+00 1.99992E-03 0.00000E+00-2.30863E-19 1.76134E-18
 -1         5 0.00000E+00 0.00000E+00 1.99992E-03 0.00000E+00 2.96159E-19-2.53224E-19
 -1         6 0.00000E+00 0.00000E+00 1.99992E-03 0.00000E+00-2.13856E-19 8.66809E-21
 -1         7 0.00000E+00 0.00000E+00 1.99992E-03 0.00000E+00 1.93228E-18 1.41309E-18
 -1         8 0.00000E+00 0.00000E+00 1.99992E-03 0.00000E+00-2.93494E-21-3.76507E-19
 -1         9 0.00000E+00 0.00000E+00 2.00010E-03 0.00000E+00-4.18795E-19-2.04593E-19
 -1        10 0.00000E+00 0.00000E+00 2.00010E-03 0.00000E+00 4.40404E-19 3.85247E-19
 -1        11 0.00000E+00 0.00000E+00 2.00010E-03 0.00000E+00 2.54597E-19 2.23763E-19
 -1        12 0.00000E+00 0.00000E+00 2.00010E-03 0.00000E+00 2.42075E-19 1.71784E-19
 -1        13 0.00000E+00 0.00000E+00 2.00010E-03 0.00000E+00-1.72104E-19-2.53389E-20
 -1        14 0.00000E+00 0.00000E+00 2.00010E-03 0.00000E+00 4.10158E-19 8.94127E-20
 -1        15 0.00000E+00 0.00000E+00 2.00010E-03 0.00000E+00-1.16356E-18 2.49269E-19
 -1        16 0.00000E+00 0.00000E+00 2.00010E-03 0.00000E+00 4.45153E-19 4.17991E-19
 -1        17 0.00000E+00 0.00000E+00 2.00010E-03 0.00000E+00-4.86716E-20 2.27507E-19
 -1        18 0.00000E+00 0.00000E+00 2.00010E-03 0.00000E+00 6.09490E-19-7.85158E-19
 -1        19 0.00000E+00 0.00000E+00 2.00010E-03 0.00000E+00 5.23083E-19-1.12112E-19
 -1        20 0.00000E+00 0.00000E+00 2.00010E-03 0.00000E+00 2.30452E-19 4.46960E-19
 -3
    1PSTEP                       389          78           1          
  100CL  178 118503.4253          20                     0   78           1
 -4  FORC        4    1
 -5  F1          1    2    1    0
 -5  F2          1    2    2    0
 -5  F3          1    2    3    0
 -5  ALL         1    2    0    0    1ALL
 -1         1-1.43625E+01-1.43625E+01 2.12751E+01
 -1         2-1.43625E+01 1.43625E+01 2.12751E+01
 -1         3-1.43625E+01 1.43625E+01-2.12751E+01
 -1         4-1.43625E+01-1.43625E+01-2.12751E+01
 -1         5 1.43625E+01-1.43625E+01 2.12751E+01
 -1         6 1.43625E+01 1.43625E+01 2.12751E+01
 -1         7 1.43625E+01 1.43625E+01-2.12751E+01
 -1         8 1.43625E+01-1.43625E+01-2.12751E+01
 -1         9 5.74498E+01-7.13367E-15-8.51003E+01
 -1        10 5.74498E+01-5.74498E+01 7.32747E-15
 -1        11 5.74498E+01 7.35571E-15 8.51003E+01
 -1        12 5.74498E+01 5.74498E+01 1.47105E-14
 -1        13-1.17602E-14 5.74498E+01-8.51003E+01
 -1        14 1.62242E-15-5.74498E+01-8.51003E+01
 -1        15 1.53936E-16-5.74498E+01 8.51003E+01
 -1        16 2.41597E-16 5.74498E+01 8.51003E+01
 -1        17-5.74498E+01-3.99711E-15-8.51003E+01
 -1        18-5.74498E+01-5.74498E+01-3.55271E-15
 -1        19-5.74498E+01 1.99871E-15 8.51003E+01
 -1        20-5.74498E+01 5.74498E+01-3.55271E-15
 -3
    1PSTEP                       390          78           1          
  100CL  178 118503.4253          20                     0   78           1
 -4  ERROR       1    1
 -5  STR(%)      1    1    0    0
 -1         1 3.13189E-14
 -1         2 3.13189E-14
 -1         3 3.13189E-14
 -1         4 3.13189E-14
 -1         5 3.13189E-14
 -1         6 3.13189E-14
 -1         7 3.13189E-14
 -1         8 3.13189E-14
 -1         9 3.13189E-14
 -1        10 3.13189E-14
 -1        11 3.13189E-14
 -1        12 3.13189E-14
 -1        13 3.13189E-14
 -1        14 3.13189E-14
 -1        15 3.13189E-14
 -1        16 3.13189E-14
 -1        17 3.13189E-14
 -1        18 3.13189E-14
 -1        19 3.13189E-14
 -1        20 3.13189E-14
 -3
    1PSTEP                       391          79           1          
  100CL  179 120238.8036          20                     0   79           1
 -4  DISP        4    1
 -5  D1          1    2    1    0
 -5  D2          1    2    2    0
 -5  D3          1    2    3    0
 -5  ALL         1    2    0    0    1ALL
 -1         1 0.00000E+00 0.00000E+00 0.00000E+00
 -1         2 0.00000E+00 0.00000E+00 0.00000E+00
 -1         3 0.00000E+00 0.00000E+00 2.00000E-03
 -1         4 0.00000E+00 0.00000E+00 2.00000E-03
 -1         5 0.00000E+00 0.00000E+00 0.00000E+00
 -1         6 0.00000E+00 0.00000E+00 0.00000E+00
 -1         7 0.00000E+00 0.00000E+00 2.00000E-03
 -1         8 0.00000E+00 0.00000E+00 2.00000E-03
 -1         9 0.00000E+00 0.00000E+00 0.00000E+00
 -1        10 0.00000E+00 0.00000E+00 1.00000E-03
 -1        11 0.00000E+00 0.00000E+00 2.00000E-03
 -1        12 0.00000E+00 0.00000E+00 1.00000E-03
 -1        13 0.00000E+00 0.00000E+00 0.00000E+00
 -1        14 0.00000E+00 0.00000E+00 0.00000E+00
 -1        15 0.00000E+00 0.00000E+00 2.00000E-03
 -1        16 0.00000E+00 0.00000E+00 2.00000E-03
 -1        17 0.00000E+00 0.00000E+00 0.00000E+00
 -1        18 0.00000E+00 0.00000E+00 1.00000E-03
 -1        19 0.00000E+00 0.00000E+00 2.00000E-03
 -1        20 0.00000E+00 0.00000E+00 1.00000E-03
 -3
    1PSTEP                       392          79           1          
  100CL  179 120238.8036          20                     0   79           1
 -4  STRESS      6    1
 -5  SXX         1    4    1    1
 -5  SYY         1    4    2    2
 -5  SZZ         1    4    3    3
 -5  SXY         1    4    1    2
 -5  SYZ         1    4    2    3
 -5  SZX         1    4    3    1
 -1         1 1.72534E+02 1.72534E+02 2.54908E+02 0.00000E+00 1.69921E-14 2.96172E-14
 -1         2 1.72534E+02 1.72534E+02 2.54908E+02 0.00000E+00-2.67247E-14-3.33087E-14
 -1         3 1.72534E+02 1.72534E+02 2.54908E+02 0.00000E+00-4.15648E-15-4.93645E-14
 -1         4 1.72534E+02 1.72534E+02 2.54908E+02 0.00000E+00-9.50889E-15 7.25468E-14
 -1         5 1.72534E+02 1.72534E+02 2.54908E+02 0.00000E+00 1.21983E-14-1.04299E-14
 -1         6 1.72534E+02 1.72534E+02 2.54908E+02 0.00000E+00-8.80841E-15 3.57026E-16
 -1         7 1.72534E+02 1.72534E+02 2.54908E+02 0.00000E+00 7.95878E-14 5.82029E-14
 -1         8 1.72534E+02 1.72534E+02 2.54908E+02 0.00000E+00-1.20886E-16-1.55077E-14
 -1         9 1.72550E+02 1.72550E+02 2.54931E+02 0.00000E+00-1.72495E-14-8.42687E-15
 -1        10 1.72550E+02 1.72550E+02 2.54931E+02 0.00000E+00 1.81396E-14 1.58677E-14
 -1        11 1.72550E+02 1.72550E+02 2.54931E+02 0.00000E+00 1.04864E-14 9.21647E-15
 -1        12 1.72550E+02 1.72550E+02 2.54931E+02 0.00000E+00 9.97069E-15 7.07554E-15
 -1        13 1.72550E+02 1.72550E+02 2.54931E+02 0.00000E+00-7.08871E-15-1.04367E-15
 -1        14 1.72550E+02 1.72550E+02 2.54931E+02 0.00000E+00 1.68938E-14 3.68277E-15
 -1        15 1.72550E+02 1.72550E+02 2.54931E+02 0.00000E+00-4.79255E-14 1.02670E-14
 -1        16 1.72550E+02 1.72550E+02 2.54931E+02 0.00000E+00 1.83352E-14 1.72164E-14
 -1        17 1.72550E+02 1.72550E+02 2.54931E+02 0.00000E+00-2.00471E-15 9.37067E-15
 -1        18 1.72550E+02 1.72550E+02 2.54931E+02 0.00000E+00 2.51040E-14-3.23395E-14
 -1        19 1.72550E+02 1.72550E+02 2.54931E+02 0.00000E+00 2.15450E-14-4.61771E-15
 -1        20 1.72550E+02 1.72550E+02 2.54931E+02 0.00000E+00 9.49195E-15 1.84096E-14
 -3
    1PSTEP                       393          79           1          
  100CL  179 120238.8036          20                     0   79           1
 -4  TOSTRAIN    6    1
 -5  EXX         1    4    1    1
 -5  EYY         1    4    2    2
 -5  EZZ         1    4    3    3
 -5  EXY         1    4    1    2
 -5  EYZ         1    4    2    3
 -5  EZX         1    4    3    1
 -1         1 0.00000E+00 0.00000E+00 1.99992E-03 0.00000E+00 4.12546E-19 7.19066E-19
 -1         2 0.00000E+00 0.00000E+00 1.99992E-03 0.00000E+00-6.48839E-19-8.08690E-19
 -1         3 0.00000E+00 0.00000E+00 1.99992E-03 0.00000E+00-1.00914E-19-1.19850E-18
 -1         4 0.00000E+00 0.00000E+00 1.99992E-03 0.00000E+00-2.30863E-19 1.76134E-18
 -1         5 0.00000E+00 0.00000E+00 1.99992E-03 0.00000E+00 2.96159E-19-2.53224E-19
 -1         6 0.00000E+00 0.00000E+00 1.99992E-03 0.00000E+00-2.13856E-19 8.66809E-21
 -1         7 0.00000E+00 0.00000E+00 1.99992E-03 0.00000E+00 1.93228E-18 1.41309E-18
 -1         8 0.00000E+00 0.00000E+00 1.99992E-03 0.00000E+00-2.93494E-21-3.76507E-19
 -1         9 0.00000E+00 0.00000E+00 2.00010E-03 0.00000E+00-4.18795E-19-2.04593E-19
 -1        10 0.00000E+00 0.00000E+00 2.00010E-03 0.00000E+00 4.40404E-19 3.85247E-19
 -1        11 0.00000E+00 0.00000E+00 2.00010E-03 0.00000E+00 2.54597E-19 2.23763E-19
 -1        12 0.00000E+00 0.00000E+00 2.00010E-03 0.00000E+00 2.42075E-19 1.71784E-19
 -1        13 0.00000E+00 0.00000E+00 2.00010E-03 0.00000E+00-1.72104E-19-2.53389E-20
 -1        14 0.00000E+00 0.00000E+00 2.00010E-03 0.00000E+00 4.10158E-19 8.94127E-20
 -1        15 0.00000E+00 0.00000E+00 2.00010E-03 0.00000E+00-1.16356E-18 2.49269E-19
 -1        16 0.00000E+00 0.00000E+00 2.00010E-03 0.00000E+00 4.45153E-19 4.17991E-19
 -1        17 0.00000E+00 0.00000E+00 2.00010E-03 0.00000E+00-4.86716E-20 2.27507E-19
 -1        18 0.00000E+00 0.00000E+00 2.00010E-03 0.00000E+00 6.09490E-19-7.85158E-19
 -1        19 0.00000E+00 0.00000E+00 2.00010E-03 0.00000E+00 5.23083E-19-1.12112E-19
 -1        20 0.00000E+00 0.00000E+00 2.00010E-03 0.00000E+00 2.30452E-19 4.46960E-19
 -3
    1PSTEP                       394          79           1          
  100CL  179 120238.8036          20                     0   79           1
 -4  FORC        4    1
 -5  F1          1    2    1    0
 -5  F2          1    2    2    0
 -5  F3          1    2    3    0
 -5  ALL         1    2    0    0    1ALL
 -1         1-1.43784E+01-1.43784E+01 2.12432E+01
 -1         2-1.43784E+01 1.43784E+01 2.12432E+01
 -1         3-1.43784E+01 1.43784E+01-2.12432E+01
 -1         4-1.43784E+01-1.43784E+01-2.12432E+01
 -1         5 1.43784E+01-1.43784E+01 2.12432E+01
 -1         6 1.43784E+01 1.43784E+01 2.12432E+01
 -1         7 1.43784E+01 1.43784E+01-2.12432E+01
 -1         8 1.43784E+01-1.43784E+01-2.12432E+01
 -1         9 5.75137E+01-8.68779E-15-8.49727E+01
 -1        10 5.75137E+01-5.75137E+01 2.22045E-15
 -1        11 5.75137E+01 5.57916E-15 8.49727E+01
 -1        12 5.75137E+01 5.75137E+01 1.79301E-14
 -1        13 1.26926E-14 5.75137E+01-8.49727E+01
 -1        14 1.62784E-14-5.75137E+01-8.49727E+01
 -1        15-1.05053E-14-5.75137E+01 8.49727E+01
 -1        16-3.97739E-15 5.75137E+01 8.49727E+01
 -1        17-5.75137E+01-4.42856E-16-8.49727E+01
 -1        18-5.75137E+01-5.75137E+01 1.77636E-15
 -1        19-5.75137E+01 2.20811E-16 8.49727E+01
 -1        20-5.75137E+01 5.75137E+01 3.99680E-15
 -3
    1PSTEP                       395          79           1          
  100CL  179 120238.8036          20                     0   79           1
 -4  ERROR       1    1
 -5  STR(%)      1    1    0    0
 -1         1 9.69492E-15
 -1         2 9.69492E-15
 -1         3 9.69492E-15
 -1         4 9.69492E-15
 -1         5 9.69492E-15
 -1         6 9.69492E-15
 -1         7 9.69492E-15
 -1         8 9.69492E-15
 -1         9 9.69492E-15
 -1        10 9.69492E-15
 -1        11 9.69492E-15
 -1        12 9.69492E-15
 -1        13 9.69492E-15
 -1        14 9.69492E-15
 -1        15 9.69492E-15
 -1        16 9.69492E-15
 -1        17 9.69492E-15
 -1        18 9.69492E-15
 -1        19 9.69492E-15
 -1        20 9.69492E-15
 -3
    1PSTEP                       396          80           1          
  100CL  180 122841.8710          20                     0   80           1
 -4  DISP        4    1
 -5  D1          1    2    1    0
 -5  D2          1    2    2    0
 -5  D3          1    2    3    0
 -5  ALL         1    2    0    0    1ALL
 -1         1 0.00000E+00 0.00000E+00 0.00000E+00
 -1         2 0.00000E+00 0.00000E+00 0.00000E+00
 -1         3 0.00000E+00 0.00000E+00 2.00000E-03
 -1         4 0.00000E+00 0.00000E+00 2.00000E-03
 -1         5 0.00000E+00 0.00000E+00 0.00000E+00
 -1         6 0.00000E+00 0.00000E+00 0.00000E+00
 -1         7 0.00000E+00 0.00000E+00 2.00000E-03
 -1         8 0.00000E+00 0.00000E+00 2.00000E-03
 -1         9 0.00000E+00 0.00000E+00 0.00000E+00
 -1        10 0.00000E+00 0.00000E+00 1.00000E-03
 -1        11 0.00000E+00 0.00000E+00 2.00000E-03
 -1        12 0.00000E+00 0.00000E+00 1.00000E-03
 -1        13 0.00000E+00 0.00000E+00 0.00000E+00
 -1        14 0.00000E+00 0.00000E+00 0.00000E+00
 -1        15 0.00000E+00 0.00000E+00 2.00000E-03
 -1        16 0.00000E+00 0.00000E+00 2.00000E-03
 -1        17 0.00000E+00 0.00000E+00 0.00000E+00
 -1        18 0.00000E+00 0.00000E+00 1.00000E-03
 -1        19 0.00000E+00 0.00000E+00 2.00000E-03
 -1        20 0.00000E+00 0.00000E+00 1.00000E-03
 -3
    1PSTEP                       397          80           1          
  100CL  180 122841.8710          20                     0   80           1
 -4  STRESS      6    1
 -5  SXX         1    4    1    1
 -5  SYY         1    4    2    2
 -5  SZZ         1    4    3    3
 -5  SXY         1    4    1    2
 -5  SYZ         1    4    2    3
 -5  SZX         1    4    3    1
 -1         1 1.72818E+02 1.72818E+02 2.54339E+02 0.00000E+00 1.68162E-14 2.93106E-14
 -1         2 1.72818E+02 1.72818E+02 2.54339E+02 0.00000E+00-2.64480E-14-3.29638E-14
 -1         3 1.72818E+02 1.72818E+02 2.54339E+02 0.00000E+00-4.11344E-15-4.88533E-14
 -1         4 1.72818E+02 1.72818E+02 2.54339E+02 0.00000E+00-9.41043E-15 7.17956E-14
 -1         5 1.72818E+02 1.72818E+02 2.54339E+02 0.00000E+00 1.20720E-14-1.03219E-14
 -1         6 1.72818E+02 1.72818E+02 2.54339E+02 0.00000E+00-8.71721E-15 3.53329E-16
 -1         7 1.72818E+02 1.72818E+02 2.54339E+02 0.00000E+00 7.87637E-14 5.76002E-14
 -1         8 1.72818E+02 1.72818E+02 2.54339E+02 0.00000E+00-1.19634E-16-1.53472E-14
 -1         9 1.72834E+02 1.72834E+02 2.54362E+02 0.00000E+00-1.70709E-14-8.33962E-15
 -1        10 1.72834E+02 1.72834E+02 2.54362E+02 0.00000E+00 1.79518E-14 1.57034E-14
 -1        11 1.72834E+02 1.72834E+02 2.54362E+02 0.00000E+00 1.03779E-14 9.12104E-15
 -1        12 1.72834E+02 1.72834E+02 2.54362E+02 0.00000E+00 9.86745E-15 7.00228E-15
 -1        13 1.72834E+02 1.72834E+02 2.54362E+02 0.00000E+00-7.01531E-15-1.03287E-15
 -1        14 1.72834E+02 1.72834E+02 2.54362E+02 0.00000E+00 1.67189E-14 3.64464E-15
 -1        15 1.72834E+02 1.72834E+02 2.54362E+02 0.00000E+00-4.74292E-14 1.01607E-14
 -1        16 1.72834E+02 1.72834E+02 2.54362E+02 0.00000E+00 1.81453E-14 1.70381E-14
 -1        17 1.72834E+02 1.72834E+02 2.54362E+02 0.00000E+00-1.98395E-15 9.27364E-15
 -1        18 1.72834E+02 1.72834E+02 2.54362E+02 0.00000E+00 2.48440E-14-3.20046E-14
 -1        19 1.72834E+02 1.72834E+02 2.54362E+02 0.00000E+00 2.13219E-14-4.56989E-15
 -1        20 1.72834E+02 1.72834E+02 2.54362E+02 0.00000E+00 9.39367E-15 1.82190E-14
 -3
    1PSTEP                       398          80           1          
  100CL  180 122841.8710          20                     0   80           1
 -4  TOSTRAIN    6    1
 -5  EXX         1    4    1    1
 -5  EYY         1    4    2    2
 -5  EZZ         1    4    3    3
 -5  EXY         1    4    1    2
 -5  EYZ         1    4    2    3
 -5  EZX         1    4    3    1
 -1         1 0.00000E+00 0.00000E+00 1.99992E-03 0.00000E+00 4.12546E-19 7.19066E-19
 -1         2 0.00000E+00 0.00000E+00 1.99992E-03 0.00000E+00-6.48839E-19-8.08690E-19
 -1         3 0.00000E+00 0.00000E+00 1.99992E-03 0.00000E+00-1.00914E-19-1.19850E-18
 -1         4 0.00000E+00 0.00000E+00 1.99992E-03 0.00000E+00-2.30863E-19 1.76134E-18
 -1         5 0.00000E+00 0.00000E+00 1.99992E-03 0.00000E+00 2.96159E-19-2.53224E-19
 -1         6 0.00000E+00 0.00000E+00 1.99992E-03 0.00000E+00-2.13856E-19 8.66809E-21
 -1         7 0.00000E+00 0.00000E+00 1.99992E-03 0.00000E+00 1.93228E-18 1.41309E-18
 -1         8 0.00000E+00 0.00000E+00 1.99992E-03 0.00000E+00-2.93494E-21-3.76507E-19
 -1         9 0.00000E+00 0.00000E+00 2.00010E-03 0.00000E+00-4.18795E-19-2.04593E-19
 -1        10 0.00000E+00 0.00000E+00 2.00010E-03 0.00000E+00 4.40404E-19 3.85247E-19
 -1        11 0.00000E+00 0.00000E+00 2.00010E-03 0.00000E+00 2.54597E-19 2.23763E-19
 -1        12 0.00000E+00 0.00000E+00 2.00010E-03 0.00000E+00 2.42075E-19 1.71784E-19
 -1        13 0.00000E+00 0.00000E+00 2.00010E-03 0.00000E+00-1.72104E-19-2.53389E-20
 -1        14 0.00000E+00 0.00000E+00 2.00010E-03 0.00000E+00 4.10158E-19 8.94127E-20
 -1        15 0.00000E+00 0.00000E+00 2.00010E-03 0.00000E+00-1.16356E-18 2.49269E-19
 -1        16 0.00000E+00 0.00000E+00 2.00010E-03 0.00000E+00 4.45153E-19 4.17991E-19
 -1        17 0.00000E+00 0.00000E+00 2.00010E-03 0.00000E+00-4.86716E-20 2.27507E-19
 -1        18 0.00000E+00 0.00000E+00 2.00010E-03 0.00000E+00 6.09490E-19-7.85158E-19
 -1        19 0.00000E+00 0.00000E+00 2.00010E-03 0.00000E+00 5.23083E-19-1.12112E-19
 -1        20 0.00000E+00 0.00000E+00 2.00010E-03 0.00000E+00 2.30452E-19 4.46960E-19
 -3
    1PSTEP                       399          80           1          
  100CL  180 122841.8710          20                     0   80           1
 -4  FORC        4    1
 -5  F1          1    2    1    0
 -5  F2          1    2    2    0
 -5  F3          1    2    3    0
 -5  ALL         1    2    0    0    1ALL
 -1         1-1.44021E+01-1.44021E+01 2.11958E+01
 -1         2-1.44021E+01 1.44021E+01 2.11958E+01
 -1         3-1.44021E+01 1.44021E+01-2.11958E+01
 -1         4-1.44021E+01-1.44021E+01-2.11958E+01
 -1         5 1.44021E+01-1.44021E+01 2.11958E+01
 -1         6 1.44021E+01 1.44021E+01 2.11958E+01
 -1         7 1.44021E+01 1.44021E+01-2.11958E+01
 -1         8 1.44021E+01-1.44021E+01-2.11958E+01
 -1         9 5.76084E+01-5.13478E-15-8.47831E+01
 -1        10 5.76084E+01-5.76084E+01 1.06581E-14
 -1        11 5.76084E+01 3.58047E-15 8.47831E+01
 -1        12 5.76084E+01 5.76084E+01 1.76803E-14
 -1        13-2.60048E-15 5.76084E+01-8.47831E+01
 -1        14 1.36155E-14-5.76084E+01-8.47831E+01
 -1        15-1.40596E-14-5.76084E+01 8.47831E+01
 -1        16-8.41848E-15 5.76084E+01 8.47831E+01
 -1        17-5.76084E+01-4.40570E-16-8.47831E+01
 -1        18-5.76084E+01-5.76084E+01-7.10543E-15
 -1        19-5.76084E+01-1.55783E-15 8.47831E+01
 -1        20-5.76084E+01 5.76084E+01 3.55271E-15
 -3
    1PSTEP                       400          80           1          
  100CL  180 122841.8710          20                     0   80           1
 -4  ERROR       1    1
 -5  STR(%)      1    1    0    0
 -1         1 1.37175E-14
 -1         2 1.37175E-14
 -1         3 1.37175E-14
 -1         4 1.37175E-14
 -1         5 1.37175E-14
 -1         6 1.37175E-14
 -1         7 1.37175E-14
 -1         8 1.37175E-14
 -1         9 1.37175E-14
 -1        10 1.37175E-14
 -1        11 1.37175E-14
 -1        12 1.37175E-14
 -1        13 1.37175E-14
 -1        14 1.37175E-14
 -1        15 1.37175E-14
 -1        16 1.37175E-14
 -1        17 1.37175E-14
 -1        18 1.37175E-14
 -1        19 1.37175E-14
 -1        20 1.37175E-14
 -3
    1PSTEP                       401          81           1          
  100CL  181 124520.6646          20                     0   81           1
 -4  DISP        4    1
 -5  D1          1    2    1    0
 -5  D2          1    2    2    0
 -5  D3          1    2    3    0
 -5  ALL         1    2    0    0    1ALL
 -1         1 0.00000E+00 0.00000E+00 0.00000E+00
 -1         2 0.00000E+00 0.00000E+00 0.00000E+00
 -1         3 0.00000E+00 0.00000E+00 2.00000E-03
 -1         4 0.00000E+00 0.00000E+00 2.00000E-03
 -1         5 0.00000E+00 0.00000E+00 0.00000E+00
 -1         6 0.00000E+00 0.00000E+00 0.00000E+00
 -1         7 0.00000E+00 0.00000E+00 2.00000E-03
 -1         8 0.00000E+00 0.00000E+00 2.00000E-03
 -1         9 0.00000E+00 0.00000E+00 0.00000E+00
 -1        10 0.00000E+00 0.00000E+00 1.00000E-03
 -1        11 0.00000E+00 0.00000E+00 2.00000E-03
 -1        12 0.00000E+00 0.00000E+00 1.00000E-03
 -1        13 0.00000E+00 0.00000E+00 0.00000E+00
 -1        14 0.00000E+00 0.00000E+00 0.00000E+00
 -1        15 0.00000E+00 0.00000E+00 2.00000E-03
 -1        16 0.00000E+00 0.00000E+00 2.00000E-03
 -1        17 0.00000E+00 0.00000E+00 0.00000E+00
 -1        18 0.00000E+00 0.00000E+00 1.00000E-03
 -1        19 0.00000E+00 0.00000E+00 2.00000E-03
 -1        20 0.00000E+00 0.00000E+00 1.00000E-03
 -3
    1PSTEP                       402          81           1          
  100CL  181 124520.6646          20                     0   81           1
 -4  STRESS      6    1
 -5  SXX         1    4    1    1
 -5  SYY         1    4    2    2
 -5  SZZ         1    4    3    3
 -5  SXY         1    4    1    2
 -5  SYZ         1    4    2    3
 -5  SZX         1    4    3    1
 -1         1 1.73001E+02 1.73001E+02 2.53975E+02 0.00000E+00 1.67035E-14 2.91141E-14
 -1         2 1.73001E+02 1.73001E+02 2.53975E+02 0.00000E+00-2.62707E-14-3.27429E-14
 -1         3 1.73001E+02 1.73001E+02 2.53975E+02 0.00000E+00-4.08587E-15-4.85259E-14
 -1         4 1.73001E+02 1.73001E+02 2.53975E+02 0.00000E+00-9.34735E-15 7.13144E-14
 -1         5 1.73001E+02 1.73001E+02 2.53975E+02 0.00000E+00 1.19911E-14-1.02527E-14
 -1         6 1.73001E+02 1.73001E+02 2.53975E+02 0.00000E+00-8.65878E-15 3.50961E-16
 -1         7 1.73001E+02 1.73001E+02 2.53975E+02 0.00000E+00 7.82358E-14 5.72141E-14
 -1         8 1.73001E+02 1.73001E+02 2.53975E+02 0.00000E+00-1.18832E-16-1.52443E-14
 -1         9 1.73016E+02 1.73016E+02 2.53998E+02 0.00000E+00-1.69565E-14-8.28372E-15
 -1        10 1.73016E+02 1.73016E+02 2.53998E+02 0.00000E+00 1.78314E-14 1.55982E-14
 -1        11 1.73016E+02 1.73016E+02 2.53998E+02 0.00000E+00 1.03083E-14 9.05991E-15
 -1        12 1.73016E+02 1.73016E+02 2.53998E+02 0.00000E+00 9.80131E-15 6.95534E-15
 -1        13 1.73016E+02 1.73016E+02 2.53998E+02 0.00000E+00-6.96829E-15-1.02594E-15
 -1        14 1.73016E+02 1.73016E+02 2.53998E+02 0.00000E+00 1.66068E-14 3.62021E-15
 -1        15 1.73016E+02 1.73016E+02 2.53998E+02 0.00000E+00-4.71113E-14 1.00926E-14
 -1        16 1.73016E+02 1.73016E+02 2.53998E+02 0.00000E+00 1.80237E-14 1.69239E-14
 -1        17 1.73016E+02 1.73016E+02 2.53998E+02 0.00000E+00-1.97065E-15 9.21148E-15
 -1        18 1.73016E+02 1.73016E+02 2.53998E+02 0.00000E+00 2.46775E-14-3.17901E-14
 -1        19 1.73016E+02 1.73016E+02 2.53998E+02 0.00000E+00 2.11790E-14-4.53926E-15
 -1        20 1.73016E+02 1.73016E+02 2.53998E+02 0.00000E+00 9.33070E-15 1.80969E-14
 -3
    1PSTEP                       403          81           1          
  100CL  181 124520.6646          20                     0   81           1
 -4  TOSTRAIN    6    1
 -5  EXX         1    4    1    1
 -5  EYY         1    4    2    2
 -5  EZZ         1    4    3    3
 -5  EXY         1    4    1    2
 -5  EYZ         1    4    2    3
 -5  EZX         1    4    3    1
 -1         1 0.00000E+00 0.00000E+00 1.99992E-03 0.00000E+00 4.12546E-19 7.19066E-19
 -1         2 0.00000E+00 0.00000E+00 1.99992E-03 0.00000E+00-6.48839E-19-8.08690E-19
 -1         3 0.00000E+00 0.00000E+00 1.99992E-03 0.00000E+00-1.00914E-19-1.19850E-18
 -1         4 0.00000E+00 0.00000E+00 1.99992E-03 0.00000E+00-2.30863E-19 1.76134E-18
 -1         5 0.00000E+00 0.00000E+00 1.99992E-03 0.00000E+00 2.96159E-19-2.53224E-19
 -1         6 0.00000E+00 0.00000E+00 1.99992E-03 0.00000E+00-2.13856E-19 8.66809E-21
 -1         7 0.00000E+00 0.00000E+00 1.99992E-03 0.00000E+00 1.93228E-18 1.41309E-18
 -1         8 0.00000E+00 0.00000E+00 1.99992E-03 0.00000E+00-2.93494E-21-3.76507E-19
 -1         9 0.00000E+00 0.00000E+00 2.00010E-03 0.00000E+00-4.18795E-19-2.04593E-19
 -1        10 0.00000E+00 0.00000E+00 2.00010E-03 0.00000E+00 4.40404E-19 3.85247E-19
 -1        11 0.00000E+00 0.00000E+00 2.00010E-03 0.00000E+00 2.54597E-19 2.23763E-19
 -1        12 0.00000E+00 0.00000E+00 2.00010E-03 0.00000E+00 2.42075E-19 1.71784E-19
 -1        13 0.00000E+00 0.00000E+00 2.00010E-03 0.00000E+00-1.72104E-19-2.53389E-20
 -1        14 0.00000E+00 0.00000E+00 2.00010E-03 0.00000E+00 4.10158E-19 8.94127E-20
 -1        15 0.00000E+00 0.00000E+00 2.00010E-03 0.00000E+00-1.16356E-18 2.49269E-19
 -1        16 0.00000E+00 0.00000E+00 2.00010E-03 0.00000E+00 4.45153E-19 4.17991E-19
 -1        17 0.00000E+00 0.00000E+00 2.00010E-03 0.00000E+00-4.86716E-20 2.27507E-19
 -1        18 0.00000E+00 0.00000E+00 2.00010E-03 0.00000E+00 6.09490E-19-7.85158E-19
 -1        19 0.00000E+00 0.00000E+00 2.00010E-03 0.00000E+00 5.23083E-19-1.12112E-19
 -1        20 0.00000E+00 0.00000E+00 2.00010E-03 0.00000E+00 2.30452E-19 4.46960E-19
 -3
    1PSTEP                       404          81           1          
  100CL  181 124520.6646          20                     0   81           1
 -4  FORC        4    1
 -5  F1          1    2    1    0
 -5  F2          1    2    2    0
 -5  F3          1    2    3    0
 -5  ALL         1    2    0    0    1ALL
 -1         1-1.44173E+01-1.44173E+01 2.11654E+01
 -1         2-1.44173E+01 1.44173E+01 2.11654E+01
 -1         3-1.44173E+01 1.44173E+01-2.11654E+01
 -1         4-1.44173E+01-1.44173E+01-2.11654E+01
 -1         5 1.44173E+01-1.44173E+01 2.11654E+01
 -1         6 1.44173E+01 1.44173E+01 2.11654E+01
 -1         7 1.44173E+01 1.44173E+01-2.11654E+01
 -1         8 1.44173E+01-1.44173E+01-2.11654E+01
 -1         9 5.76692E+01-5.13460E-15-8.46617E+01
 -1        10 5.76692E+01-5.76692E+01 3.55271E-15
 -1        11 5.76692E+01 6.91095E-15 8.46617E+01
 -1        12 5.76692E+01 5.76692E+01 1.33227E-14
 -1        13-1.06772E-14 5.76692E+01-8.46617E+01
 -1        14 1.22842E-14-5.76692E+01-8.46617E+01
 -1        15 7.25570E-15-5.76692E+01 8.46617E+01
 -1        16-1.09114E-15 5.76692E+01 8.46617E+01
 -1        17-5.76692E+01-2.21546E-15-8.46617E+01
 -1        18-5.76692E+01-5.76692E+01-1.77636E-15
 -1        19-5.76692E+01 1.99342E-15 8.46617E+01
 -1        20-5.76692E+01 5.76692E+01-1.11022E-15
 -3
    1PSTEP                       405          81           1          
  100CL  181 124520.6646          20                     0   81           1
 -4  ERROR       1    1
 -5  STR(%)      1    1    0    0
 -1         1 1.20201E-14
 -1         2 1.20201E-14
 -1         3 1.20201E-14
 -1         4 1.20201E-14
 -1         5 1.20201E-14
 -1         6 1.20201E-14
 -1         7 1.20201E-14
 -1         8 1.20201E-14
 -1         9 1.20201E-14
 -1        10 1.20201E-14
 -1        11 1.20201E-14
 -1        12 1.20201E-14
 -1        13 1.20201E-14
 -1        14 1.20201E-14
 -1        15 1.20201E-14
 -1        16 1.20201E-14
 -1        17 1.20201E-14
 -1        18 1.20201E-14
 -1        19 1.20201E-14
 -1        20 1.20201E-14
 -3
    1PSTEP                       406          82           1          
  100CL  182 126199.4583          20                     0   82           1
 -4  DISP        4    1
 -5  D1          1    2    1    0
 -5  D2          1    2    2    0
 -5  D3          1    2    3    0
 -5  ALL         1    2    0    0    1ALL
 -1         1 0.00000E+00 0.00000E+00 0.00000E+00
 -1         2 0.00000E+00 0.00000E+00 0.00000E+00
 -1         3 0.00000E+00 0.00000E+00 2.00000E-03
 -1         4 0.00000E+00 0.00000E+00 2.00000E-03
 -1         5 0.00000E+00 0.00000E+00 0.00000E+00
 -1         6 0.00000E+00 0.00000E+00 0.00000E+00
 -1         7 0.00000E+00 0.00000E+00 2.00000E-03
 -1         8 0.00000E+00 0.00000E+00 2.00000E-03
 -1         9 0.00000E+00 0.00000E+00 0.00000E+00
 -1        10 0.00000E+00 0.00000E+00 1.00000E-03
 -1        11 0.00000E+00 0.00000E+00 2.00000E-03
 -1        12 0.00000E+00 0.00000E+00 1.00000E-03
 -1        13 0.00000E+00 0.00000E+00 0.00000E+00
 -1        14 0.00000E+00 0.00000E+00 0.00000E+00
 -1        15 0.00000E+00 0.00000E+00 2.00000E-03
 -1        16 0.00000E+00 0.00000E+00 2.00000E-03
 -1        17 0.00000E+00 0.00000E+00 0.00000E+00
 -1        18 0.00000E+00 0.00000E+00 1.00000E-03
 -1        19 0.00000E+00 0.00000E+00 2.00000E-03
 -1        20 0.00000E+00 0.00000E+00 1.00000E-03
 -3
    1PSTEP                       407          82           1          
  100CL  182 126199.4583          20                     0   82           1
 -4  STRESS      6    1
 -5  SXX         1    4    1    1
 -5  SYY         1    4    2    2
 -5  SZZ         1    4    3    3
 -5  SXY         1    4    1    2
 -5  SYZ         1    4    2    3
 -5  SZX         1    4    3    1
 -1         1 1.73181E+02 1.73181E+02 2.53613E+02 0.00000E+00 1.65915E-14 2.89190E-14
 -1         2 1.73181E+02 1.73181E+02 2.53613E+02 0.00000E+00-2.60946E-14-3.25234E-14
 -1         3 1.73181E+02 1.73181E+02 2.53613E+02 0.00000E+00-4.05849E-15-4.82006E-14
 -1         4 1.73181E+02 1.73181E+02 2.53613E+02 0.00000E+00-9.28470E-15 7.08364E-14
 -1         5 1.73181E+02 1.73181E+02 2.53613E+02 0.00000E+00 1.19107E-14-1.01840E-14
 -1         6 1.73181E+02 1.73181E+02 2.53613E+02 0.00000E+00-8.60074E-15 3.48608E-16
 -1         7 1.73181E+02 1.73181E+02 2.53613E+02 0.00000E+00 7.77114E-14 5.68306E-14
 -1         8 1.73181E+02 1.73181E+02 2.53613E+02 0.00000E+00-1.18035E-16-1.51421E-14
 -1         9 1.73197E+02 1.73197E+02 2.53636E+02 0.00000E+00-1.68429E-14-8.22820E-15
 -1        10 1.73197E+02 1.73197E+02 2.53636E+02 0.00000E+00 1.77119E-14 1.54936E-14
 -1        11 1.73197E+02 1.73197E+02 2.53636E+02 0.00000E+00 1.02392E-14 8.99918E-15
 -1        12 1.73197E+02 1.73197E+02 2.53636E+02 0.00000E+00 9.73561E-15 6.90873E-15
 -1        13 1.73197E+02 1.73197E+02 2.53636E+02 0.00000E+00-6.92158E-15-1.01907E-15
 -1        14 1.73197E+02 1.73197E+02 2.53636E+02 0.00000E+00 1.64955E-14 3.59595E-15
 -1        15 1.73197E+02 1.73197E+02 2.53636E+02 0.00000E+00-4.67956E-14 1.00249E-14
 -1        16 1.73197E+02 1.73197E+02 2.53636E+02 0.00000E+00 1.79029E-14 1.68105E-14
 -1        17 1.73197E+02 1.73197E+02 2.53636E+02 0.00000E+00-1.95745E-15 9.14974E-15
 -1        18 1.73197E+02 1.73197E+02 2.53636E+02 0.00000E+00 2.45121E-14-3.15770E-14
 -1        19 1.73197E+02 1.73197E+02 2.53636E+02 0.00000E+00 2.10370E-14-4.50884E-15
 -1        20 1.73197E+02 1.73197E+02 2.53636E+02 0.00000E+00 9.26817E-15 1.79756E-14
 -3
    1PSTEP                       408          82           1          
  100CL  182 126199.4583          20                     0   82           1
 -4  TOSTRAIN    6    1
 -5  EXX         1    4    1    1
 -5  EYY         1    4    2    2
 -5  EZZ         1    4    3    3
 -5  EXY         1    4    1    2
 -5  EYZ         1    4    2    3
 -5  EZX         1    4    3    1
 -1         1 0.00000E+00 0.00000E+00 1.99992E-03 0.00000E+00 4.12546E-19 7.19066E-19
 -1         2 0.00000E+00 0.00000E+00 1.99992E-03 0.00000E+00-6.48839E-19-8.08690E-19
 -1         3 0.00000E+00 0.00000E+00 1.99992E-03 0.00000E+00-1.00914E-19-1.19850E-18
 -1         4 0.00000E+00 0.00000E+00 1.99992E-03 0.00000E+00-2.30863E-19 1.76134E-18
 -1         5 0.00000E+00 0.00000E+00 1.99992E-03 0.00000E+00 2.96159E-19-2.53224E-19
 -1         6 0.00000E+00 0.00000E+00 1.99992E-03 0.00000E+00-2.13856E-19 8.66809E-21
 -1         7 0.00000E+00 0.00000E+00 1.99992E-03 0.00000E+00 1.93228E-18 1.41309E-18
 -1         8 0.00000E+00 0.00000E+00 1.99992E-03 0.00000E+00-2.93494E-21-3.76507E-19
 -1         9 0.00000E+00 0.00000E+00 2.00010E-03 0.00000E+00-4.18795E-19-2.04593E-19
 -1        10 0.00000E+00 0.00000E+00 2.00010E-03 0.00000E+00 4.40404E-19 3.85247E-19
 -1        11 0.00000E+00 0.00000E+00 2.00010E-03 0.00000E+00 2.54597E-19 2.23763E-19
 -1        12 0.00000E+00 0.00000E+00 2.00010E-03 0.00000E+00 2.42075E-19 1.71784E-19
 -1        13 0.00000E+00 0.00000E+00 2.00010E-03 0.00000E+00-1.72104E-19-2.53389E-20
 -1        14 0.00000E+00 0.00000E+00 2.00010E-03 0.00000E+00 4.10158E-19 8.94127E-20
 -1        15 0.00000E+00 0.00000E+00 2.00010E-03 0.00000E+00-1.16356E-18 2.49269E-19
 -1        16 0.00000E+00 0.00000E+00 2.00010E-03 0.00000E+00 4.45153E-19 4.17991E-19
 -1        17 0.00000E+00 0.00000E+00 2.00010E-03 0.00000E+00-4.86716E-20 2.27507E-19
 -1        18 0.00000E+00 0.00000E+00 2.00010E-03 0.00000E+00 6.09490E-19-7.85158E-19
 -1        19 0.00000E+00 0.00000E+00 2.00010E-03 0.00000E+00 5.23083E-19-1.12112E-19
 -1        20 0.00000E+00 0.00000E+00 2.00010E-03 0.00000E+00 2.30452E-19 4.46960E-19
 -3
    1PSTEP                       409          82           1          
  100CL  182 126199.4583          20                     0   82           1
 -4  FORC        4    1
 -5  F1          1    2    1    0
 -5  F2          1    2    2    0
 -5  F3          1    2    3    0
 -5  ALL         1    2    0    0    1ALL
 -1         1-1.44324E+01-1.44324E+01 2.11353E+01
 -1         2-1.44324E+01 1.44324E+01 2.11353E+01
 -1         3-1.44324E+01 1.44324E+01-2.11353E+01
 -1         4-1.44324E+01-1.44324E+01-2.11353E+01
 -1         5 1.44324E+01-1.44324E+01 2.11353E+01
 -1         6 1.44324E+01 1.44324E+01 2.11353E+01
 -1         7 1.44324E+01 1.44324E+01-2.11353E+01
 -1         8 1.44324E+01-1.44324E+01-2.11353E+01
 -1         9 5.77295E+01-3.13601E-15-8.45411E+01
 -1        10 5.77295E+01-5.77295E+01 3.99680E-15
 -1        11 5.77295E+01 3.35805E-15 8.45411E+01
 -1        12 5.77295E+01 5.77295E+01 1.22125E-14
 -1        13 7.86362E-15 5.77295E+01-8.45411E+01
 -1        14 1.93907E-14-5.77295E+01-8.45411E+01
 -1        15 1.49265E-16-5.77295E+01 8.45411E+01
 -1        16-8.69219E-16 5.77295E+01 8.45411E+01
 -1        17-5.77295E+01 1.33871E-15-8.45411E+01
 -1        18-5.77295E+01-5.77295E+01 3.55271E-15
 -1        19-5.77295E+01-1.56075E-15 8.45411E+01
 -1        20-5.77295E+01 5.77295E+01-2.66454E-15
 -3
    1PSTEP                       410          82           1          
  100CL  182 126199.4583          20                     0   82           1
 -4  ERROR       1    1
 -5  STR(%)      1    1    0    0
 -1         1 7.45161E-15
 -1         2 7.45161E-15
 -1         3 7.45161E-15
 -1         4 7.45161E-15
 -1         5 7.45161E-15
 -1         6 7.45161E-15
 -1         7 7.45161E-15
 -1         8 7.45161E-15
 -1         9 7.45161E-15
 -1        10 7.45161E-15
 -1        11 7.45161E-15
 -1        12 7.45161E-15
 -1        13 7.45161E-15
 -1        14 7.45161E-15
 -1        15 7.45161E-15
 -1        16 7.45161E-15
 -1        17 7.45161E-15
 -1        18 7.45161E-15
 -1        19 7.45161E-15
 -1        20 7.45161E-15
 -3
    1PSTEP                       411          83           1          
  100CL  183 128717.6487          20                     0   83           1
 -4  DISP        4    1
 -5  D1          1    2    1    0
 -5  D2          1    2    2    0
 -5  D3          1    2    3    0
 -5  ALL         1    2    0    0    1ALL
 -1         1 0.00000E+00 0.00000E+00 0.00000E+00
 -1         2 0.00000E+00 0.00000E+00 0.00000E+00
 -1         3 0.00000E+00 0.00000E+00 2.00000E-03
 -1         4 0.00000E+00 0.00000E+00 2.00000E-03
 -1         5 0.00000E+00 0.00000E+00 0.00000E+00
 -1         6 0.00000E+00 0.00000E+00 0.00000E+00
 -1         7 0.00000E+00 0.00000E+00 2.00000E-03
 -1         8 0.00000E+00 0.00000E+00 2.00000E-03
 -1         9 0.00000E+00 0.00000E+00 0.00000E+00
 -1        10 0.00000E+00 0.00000E+00 1.00000E-03
 -1        11 0.00000E+00 0.00000E+00 2.00000E-03
 -1        12 0.00000E+00 0.00000E+00 1.00000E-03
 -1        13 0.00000E+00 0.00000E+00 0.00000E+00
 -1        14 0.00000E+00 0.00000E+00 0.00000E+00
 -1        15 0.00000E+00 0.00000E+00 2.00000E-03
 -1        16 0.00000E+00 0.00000E+00 2.00000E-03
 -1        17 0.00000E+00 0.00000E+00 0.00000E+00
 -1        18 0.00000E+00 0.00000E+00 1.00000E-03
 -1        19 0.00000E+00 0.00000E+00 2.00000E-03
 -1        20 0.00000E+00 0.00000E+00 1.00000E-03
 -3
    1PSTEP                       412          83           1          
  100CL  183 128717.6487          20                     0   83           1
 -4  STRESS      6    1
 -5  SXX         1    4    1    1
 -5  SYY         1    4    2    2
 -5  SZZ         1    4    3    3
 -5  SXY         1    4    1    2
 -5  SYZ         1    4    2    3
 -5  SZX         1    4    3    1
 -1         1 1.73450E+02 1.73450E+02 2.53076E+02 0.00000E+00 1.64253E-14 2.86292E-14
 -1         2 1.73450E+02 1.73450E+02 2.53076E+02 0.00000E+00-2.58331E-14-3.21975E-14
 -1         3 1.73450E+02 1.73450E+02 2.53076E+02 0.00000E+00-4.01782E-15-4.77177E-14
 -1         4 1.73450E+02 1.73450E+02 2.53076E+02 0.00000E+00-9.19167E-15 7.01266E-14
 -1         5 1.73450E+02 1.73450E+02 2.53076E+02 0.00000E+00 1.17914E-14-1.00820E-14
 -1         6 1.73450E+02 1.73450E+02 2.53076E+02 0.00000E+00-8.51456E-15 3.45115E-16
 -1         7 1.73450E+02 1.73450E+02 2.53076E+02 0.00000E+00 7.69327E-14 5.62612E-14
 -1         8 1.73450E+02 1.73450E+02 2.53076E+02 0.00000E+00-1.16853E-16-1.49904E-14
 -1         9 1.73466E+02 1.73466E+02 2.53099E+02 0.00000E+00-1.66741E-14-8.14575E-15
 -1        10 1.73466E+02 1.73466E+02 2.53099E+02 0.00000E+00 1.75344E-14 1.53384E-14
 -1        11 1.73466E+02 1.73466E+02 2.53099E+02 0.00000E+00 1.01366E-14 8.90901E-15
 -1        12 1.73466E+02 1.73466E+02 2.53099E+02 0.00000E+00 9.63806E-15 6.83950E-15
 -1        13 1.73466E+02 1.73466E+02 2.53099E+02 0.00000E+00-6.85223E-15-1.00886E-15
 -1        14 1.73466E+02 1.73466E+02 2.53099E+02 0.00000E+00 1.63302E-14 3.55992E-15
 -1        15 1.73466E+02 1.73466E+02 2.53099E+02 0.00000E+00-4.63267E-14 9.92450E-15
 -1        16 1.73466E+02 1.73466E+02 2.53099E+02 0.00000E+00 1.77235E-14 1.66421E-14
 -1        17 1.73466E+02 1.73466E+02 2.53099E+02 0.00000E+00-1.93783E-15 9.05806E-15
 -1        18 1.73466E+02 1.73466E+02 2.53099E+02 0.00000E+00 2.42665E-14-3.12606E-14
 -1        19 1.73466E+02 1.73466E+02 2.53099E+02 0.00000E+00 2.08262E-14-4.46366E-15
 -1        20 1.73466E+02 1.73466E+02 2.53099E+02 0.00000E+00 9.17530E-15 1.77954E-14
 -3
    1PSTEP                       413          83           1          
  100CL  183 128717.6487          20                     0   83           1
 -4  TOSTRAIN    6    1
 -5  EXX         1    4    1    1
 -5  EYY         1    4    2    2
 -5  EZZ         1    4    3    3
 -5  EXY         1    4    1    2
 -5  EYZ         1    4    2    3
 -5  EZX         1    4    3    1
 -1         1 0.00000E+00 0.00000E+00 1.99992E-03 0.00000E+00 4.12546E-19 7.19066E-19
 -1         2 0.00000E+00 0.00000E+00 1.99992E-03 0.00000E+00-6.48839E-19-8.08690E-19
 -1         3 0.00000E+00 0.00000E+00 1.99992E-03 0.00000E+00-1.00914E-19-1.19850E-18
 -1         4 0.00000E+00 0.00000E+00 1.99992E-03 0.00000E+00-2.30863E-19 1.76134E-18
 -1         5 0.00000E+00 0.00000E+00 1.99992E-03 0.00000E+00 2.96159E-19-2.53224E-19
 -1         6 0.00000E+00 0.00000E+00 1.99992E-03 0.00000E+00-2.13856E-19 8.66809E-21
 -1         7 0.00000E+00 0.00000E+00 1.99992E-03 0.00000E+00 1.93228E-18 1.41309E-18
 -1         8 0.00000E+00 0.00000E+00 1.99992E-03 0.00000E+00-2.93494E-21-3.76507E-19
 -1         9 0.00000E+00 0.00000E+00 2.00010E-03 0.00000E+00-4.18795E-19-2.04593E-19
 -1        10 0.00000E+00 0.00000E+00 2.00010E-03 0.00000E+00 4.40404E-19 3.85247E-19
 -1        11 0.00000E+00 0.00000E+00 2.00010E-03 0.00000E+00 2.54597E-19 2.23763E-19
 -1        12 0.00000E+00 0.00000E+00 2.00010E-03 0.00000E+00 2.42075E-19 1.71784E-19
 -1        13 0.00000E+00 0.00000E+00 2.00010E-03 0.00000E+00-1.72104E-19-2.53389E-20
 -1        14 0.00000E+00 0.00000E+00 2.00010E-03 0.00000E+00 4.10158E-19 8.94127E-20
 -1        15 0.00000E+00 0.00000E+00 2.00010E-03 0.00000E+00-1.16356E-18 2.49269E-19
 -1        16 0.00000E+00 0.00000E+00 2.00010E-03 0.00000E+00 4.45153E-19 4.17991E-19
 -1        17 0.00000E+00 0.00000E+00 2.00010E-03 0.00000E+00-4.86716E-20 2.27507E-19
 -1        18 0.00000E+00 0.00000E+00 2.00010E-03 0.00000E+00 6.09490E-19-7.85158E-19
 -1        19 0.00000E+00 0.00000E+00 2.00010E-03 0.00000E+00 5.23083E-19-1.12112E-19
 -1        20 0.00000E+00 0.00000E+00 2.00010E-03 0.00000E+00 2.30452E-19 4.46960E-19
 -3
    1PSTEP                       414          83           1          
  100CL  183 128717.6487          20                     0   83           1
 -4  FORC        4    1
 -5  F1          1    2    1    0
 -5  F2          1    2    2    0
 -5  F3          1    2    3    0
 -5  ALL         1    2    0    0    1ALL
 -1         1-1.44548E+01-1.44548E+01 2.10905E+01
 -1         2-1.44548E+01 1.44548E+01 2.10905E+01
 -1         3-1.44548E+01 1.44548E+01-2.10905E+01
 -1         4-1.44548E+01-1.44548E+01-2.10905E+01
 -1         5 1.44548E+01-1.44548E+01 2.10905E+01
 -1         6 1.44548E+01 1.44548E+01 2.10905E+01
 -1         7 1.44548E+01 1.44548E+01-2.10905E+01
 -1         8 1.44548E+01-1.44548E+01-2.10905E+01
 -1         9 5.78190E+01-5.35618E-15-8.43620E+01
 -1        10 5.78190E+01-5.78190E+01 8.88178E-16
 -1        11 5.78190E+01 7.13254E-15 8.43620E+01
 -1        12 5.78190E+01 5.78190E+01 8.99281E-15
 -1        13-6.18051E-15 5.78190E+01-8.43620E+01
 -1        14 6.06948E-15-5.78190E+01-8.43620E+01
 -1        15 1.47770E-16-5.78190E+01 8.43620E+01
 -1        16-1.97963E-15 5.78190E+01 8.43620E+01
 -1        17-5.78190E+01-4.35490E-16-8.43620E+01
 -1        18-5.78190E+01-5.78190E+01-5.32907E-15
 -1        19-5.78190E+01 3.76616E-15 8.43620E+01
 -1        20-5.78190E+01 5.78190E+01 6.66134E-16
 -3
    1PSTEP                       415          83           1          
  100CL  183 128717.6487          20                     0   83           1
 -4  ERROR       1    1
 -5  STR(%)      1    1    0    0
 -1         1 9.76510E-15
 -1         2 9.76510E-15
 -1         3 9.76510E-15
 -1         4 9.76510E-15
 -1         5 9.76510E-15
 -1         6 9.76510E-15
 -1         7 9.76510E-15
 -1         8 9.76510E-15
 -1         9 9.76510E-15
 -1        10 9.76510E-15
 -1        11 9.76510E-15
 -1        12 9.76510E-15
 -1        13 9.76510E-15
 -1        14 9.76510E-15
 -1        15 9.76510E-15
 -1        16 9.76510E-15
 -1        17 9.76510E-15
 -1        18 9.76510E-15
 -1        19 9.76510E-15
 -1        20 9.76510E-15
 -3
    1PSTEP                       416          84           1          
  100CL  184 130493.4333          20                     0   84           1
 -4  DISP        4    1
 -5  D1          1    2    1    0
 -5  D2          1    2    2    0
 -5  D3          1    2    3    0
 -5  ALL         1    2    0    0    1ALL
 -1         1 0.00000E+00 0.00000E+00 0.00000E+00
 -1         2 0.00000E+00 0.00000E+00 0.00000E+00
 -1         3 0.00000E+00 0.00000E+00 2.00000E-03
 -1         4 0.00000E+00 0.00000E+00 2.00000E-03
 -1         5 0.00000E+00 0.00000E+00 0.00000E+00
 -1         6 0.00000E+00 0.00000E+00 0.00000E+00
 -1         7 0.00000E+00 0.00000E+00 2.00000E-03
 -1         8 0.00000E+00 0.00000E+00 2.00000E-03
 -1         9 0.00000E+00 0.00000E+00 0.00000E+00
 -1        10 0.00000E+00 0.00000E+00 1.00000E-03
 -1        11 0.00000E+00 0.00000E+00 2.00000E-03
 -1        12 0.00000E+00 0.00000E+00 1.00000E-03
 -1        13 0.00000E+00 0.00000E+00 0.00000E+00
 -1        14 0.00000E+00 0.00000E+00 0.00000E+00
 -1        15 0.00000E+00 0.00000E+00 2.00000E-03
 -1        16 0.00000E+00 0.00000E+00 2.00000E-03
 -1        17 0.00000E+00 0.00000E+00 0.00000E+00
 -1        18 0.00000E+00 0.00000E+00 1.00000E-03
 -1        19 0.00000E+00 0.00000E+00 2.00000E-03
 -1        20 0.00000E+00 0.00000E+00 1.00000E-03
 -3
    1PSTEP                       417          84           1          
  100CL  184 130493.4333          20                     0   84           1
 -4  STRESS      6    1
 -5  SXX         1    4    1    1
 -5  SYY         1    4    2    2
 -5  SZZ         1    4    3    3
 -5  SXY         1    4    1    2
 -5  SYZ         1    4    2    3
 -5  SZX         1    4    3    1
 -1         1 1.73638E+02 1.73638E+02 2.52700E+02 0.00000E+00 1.63089E-14 2.84263E-14
 -1         2 1.73638E+02 1.73638E+02 2.52700E+02 0.00000E+00-2.56501E-14-3.19693E-14
 -1         3 1.73638E+02 1.73638E+02 2.52700E+02 0.00000E+00-3.98935E-15-4.73795E-14
 -1         4 1.73638E+02 1.73638E+02 2.52700E+02 0.00000E+00-9.12653E-15 6.96296E-14
 -1         5 1.73638E+02 1.73638E+02 2.52700E+02 0.00000E+00 1.17078E-14-1.00105E-14
 -1         6 1.73638E+02 1.73638E+02 2.52700E+02 0.00000E+00-8.45422E-15 3.42669E-16
 -1         7 1.73638E+02 1.73638E+02 2.52700E+02 0.00000E+00 7.63875E-14 5.58625E-14
 -1         8 1.73638E+02 1.73638E+02 2.52700E+02 0.00000E+00-1.16025E-16-1.48842E-14
 -1         9 1.73654E+02 1.73654E+02 2.52722E+02 0.00000E+00-1.65559E-14-8.08802E-15
 -1        10 1.73654E+02 1.73654E+02 2.52722E+02 0.00000E+00 1.74102E-14 1.52297E-14
 -1        11 1.73654E+02 1.73654E+02 2.52722E+02 0.00000E+00 1.00648E-14 8.84587E-15
 -1        12 1.73654E+02 1.73654E+02 2.52722E+02 0.00000E+00 9.56976E-15 6.79103E-15
 -1        13 1.73654E+02 1.73654E+02 2.52722E+02 0.00000E+00-6.80367E-15-1.00171E-15
 -1        14 1.73654E+02 1.73654E+02 2.52722E+02 0.00000E+00 1.62145E-14 3.53469E-15
 -1        15 1.73654E+02 1.73654E+02 2.52722E+02 0.00000E+00-4.59984E-14 9.85416E-15
 -1        16 1.73654E+02 1.73654E+02 2.52722E+02 0.00000E+00 1.75979E-14 1.65241E-14
 -1        17 1.73654E+02 1.73654E+02 2.52722E+02 0.00000E+00-1.92410E-15 8.99387E-15
 -1        18 1.73654E+02 1.73654E+02 2.52722E+02 0.00000E+00 2.40945E-14-3.10391E-14
 -1        19 1.73654E+02 1.73654E+02 2.52722E+02 0.00000E+00 2.06787E-14-4.43203E-15
 -1        20 1.73654E+02 1.73654E+02 2.52722E+02 0.00000E+00 9.11027E-15 1.76693E-14
 -3
    1PSTEP                       418          84           1          
  100CL  184 130493.4333          20                     0   84           1
 -4  TOSTRAIN    6    1
 -5  EXX         1    4    1    1
 -5  EYY         1    4    2    2
 -5  EZZ         1    4    3    3
 -5  EXY         1    4    1    2
 -5  EYZ         1    4    2    3
 -5  EZX         1    4    3    1
 -1         1 0.00000E+00 0.00000E+00 1.99992E-03 0.00000E+00 4.12546E-19 7.19066E-19
 -1         2 0.00000E+00 0.00000E+00 1.99992E-03 0.00000E+00-6.48839E-19-8.08690E-19
 -1         3 0.00000E+00 0.00000E+00 1.99992E-03 0.00000E+00-1.00914E-19-1.19850E-18
 -1         4 0.00000E+00 0.00000E+00 1.99992E-03 0.00000E+00-2.30863E-19 1.76134E-18
 -1         5 0.00000E+00 0.00000E+00 1.99992E-03 0.00000E+00 2.96159E-19-2.53224E-19
 -1         6 0.00000E+00 0.00000E+00 1.99992E-03 0.00000E+00-2.13856E-19 8.66809E-21
 -1         7 0.00000E+00 0.00000E+00 1.99992E-03 0.00000E+00 1.93228E-18 1.41309E-18
 -1         8 0.00000E+00 0.00000E+00 1.99992E-03 0.00000E+00-2.93494E-21-3.76507E-19
 -1         9 0.00000E+00 0.00000E+00 2.00010E-03 0.00000E+00-4.18795E-19-2.04593E-19
 -1        10 0.00000E+00 0.00000E+00 2.00010E-03 0.00000E+00 4.40404E-19 3.85247E-19
 -1        11 0.00000E+00 0.00000E+00 2.00010E-03 0.00000E+00 2.54597E-19 2.23763E-19
 -1        12 0.00000E+00 0.00000E+00 2.00010E-03 0.00000E+00 2.42075E-19 1.71784E-19
 -1        13 0.00000E+00 0.00000E+00 2.00010E-03 0.00000E+00-1.72104E-19-2.53389E-20
 -1        14 0.00000E+00 0.00000E+00 2.00010E-03 0.00000E+00 4.10158E-19 8.94127E-20
 -1        15 0.00000E+00 0.00000E+00 2.00010E-03 0.00000E+00-1.16356E-18 2.49269E-19
 -1        16 0.00000E+00 0.00000E+00 2.00010E-03 0.00000E+00 4.45153E-19 4.17991E-19
 -1        17 0.00000E+00 0.00000E+00 2.00010E-03 0.00000E+00-4.86716E-20 2.27507E-19
 -1        18 0.00000E+00 0.00000E+00 2.00010E-03 0.00000E+00 6.09490E-19-7.85158E-19
 -1        19 0.00000E+00 0.00000E+00 2.00010E-03 0.00000E+00 5.23083E-19-1.12112E-19
 -1        20 0.00000E+00 0.00000E+00 2.00010E-03 0.00000E+00 2.30452E-19 4.46960E-19
 -3
    1PSTEP                       419          84           1          
  100CL  184 130493.4333          20                     0   84           1
 -4  FORC        4    1
 -5  F1          1    2    1    0
 -5  F2          1    2    2    0
 -5  F3          1    2    3    0
 -5  ALL         1    2    0    0    1ALL
 -1         1-1.44704E+01-1.44704E+01 2.10591E+01
 -1         2-1.44704E+01 1.44704E+01 2.10591E+01
 -1         3-1.44704E+01 1.44704E+01-2.10591E+01
 -1         4-1.44704E+01-1.44704E+01-2.10591E+01
 -1         5 1.44704E+01-1.44704E+01 2.10591E+01
 -1         6 1.44704E+01 1.44704E+01 2.10591E+01
 -1         7 1.44704E+01 1.44704E+01-2.10591E+01
 -1         8 1.44704E+01-1.44704E+01-2.10591E+01
 -1         9 5.78817E+01-7.13235E-15-8.42366E+01
 -1        10 5.78817E+01-5.78817E+01 3.77476E-15
 -1        11 5.78817E+01 3.57963E-15 8.42366E+01
 -1        12 5.78817E+01 5.78817E+01 2.22322E-14
 -1        13 2.31283E-15 5.78817E+01-8.42366E+01
 -1        14 9.62324E-15-5.78817E+01-8.42366E+01
 -1        15 5.47579E-15-5.78817E+01 8.42366E+01
 -1        16 9.06815E-16 5.78817E+01 8.42366E+01
 -1        17-5.78817E+01-2.21033E-15-8.42366E+01
 -1        18-5.78817E+01-5.78817E+01-3.55271E-15
 -1        19-5.78817E+01-1.56442E-15 8.42366E+01
 -1        20-5.78817E+01 5.78817E+01 5.10703E-15
 -3
    1PSTEP                       420          84           1          
  100CL  184 130493.4333          20                     0   84           1
 -4  ERROR       1    1
 -5  STR(%)      1    1    0    0
 -1         1 1.09302E-14
 -1         2 1.09302E-14
 -1         3 1.09302E-14
 -1         4 1.09302E-14
 -1         5 1.09302E-14
 -1         6 1.09302E-14
 -1         7 1.09302E-14
 -1         8 1.09302E-14
 -1         9 1.09302E-14
 -1        10 1.09302E-14
 -1        11 1.09302E-14
 -1        12 1.09302E-14
 -1        13 1.09302E-14
 -1        14 1.09302E-14
 -1        15 1.09302E-14
 -1        16 1.09302E-14
 -1        17 1.09302E-14
 -1        18 1.09302E-14
 -1        19 1.09302E-14
 -1        20 1.09302E-14
 -3
    1PSTEP                       421          85           1          
  100CL  185 132269.2179          20                     0   85           1
 -4  DISP        4    1
 -5  D1          1    2    1    0
 -5  D2          1    2    2    0
 -5  D3          1    2    3    0
 -5  ALL         1    2    0    0    1ALL
 -1         1 0.00000E+00 0.00000E+00 0.00000E+00
 -1         2 0.00000E+00 0.00000E+00 0.00000E+00
 -1         3 0.00000E+00 0.00000E+00 2.00000E-03
 -1         4 0.00000E+00 0.00000E+00 2.00000E-03
 -1         5 0.00000E+00 0.00000E+00 0.00000E+00
 -1         6 0.00000E+00 0.00000E+00 0.00000E+00
 -1         7 0.00000E+00 0.00000E+00 2.00000E-03
 -1         8 0.00000E+00 0.00000E+00 2.00000E-03
 -1         9 0.00000E+00 0.00000E+00 0.00000E+00
 -1        10 0.00000E+00 0.00000E+00 1.00000E-03
 -1        11 0.00000E+00 0.00000E+00 2.00000E-03
 -1        12 0.00000E+00 0.00000E+00 1.00000E-03
 -1        13 0.00000E+00 0.00000E+00 0.00000E+00
 -1        14 0.00000E+00 0.00000E+00 0.00000E+00
 -1        15 0.00000E+00 0.00000E+00 2.00000E-03
 -1        16 0.00000E+00 0.00000E+00 2.00000E-03
 -1        17 0.00000E+00 0.00000E+00 0.00000E+00
 -1        18 0.00000E+00 0.00000E+00 1.00000E-03
 -1        19 0.00000E+00 0.00000E+00 2.00000E-03
 -1        20 0.00000E+00 0.00000E+00 1.00000E-03
 -3
    1PSTEP                       422          85           1          
  100CL  185 132269.2179          20                     0   85           1
 -4  STRESS      6    1
 -5  SXX         1    4    1    1
 -5  SYY         1    4    2    2
 -5  SZZ         1    4    3    3
 -5  SXY         1    4    1    2
 -5  SYZ         1    4    2    3
 -5  SZX         1    4    3    1
 -1         1 1.73825E+02 1.73825E+02 2.52326E+02 0.00000E+00 1.61933E-14 2.82248E-14
 -1         2 1.73825E+02 1.73825E+02 2.52326E+02 0.00000E+00-2.54683E-14-3.17428E-14
 -1         3 1.73825E+02 1.73825E+02 2.52326E+02 0.00000E+00-3.96107E-15-4.70437E-14
 -1         4 1.73825E+02 1.73825E+02 2.52326E+02 0.00000E+00-9.06185E-15 6.91362E-14
 -1         5 1.73825E+02 1.73825E+02 2.52326E+02 0.00000E+00 1.16248E-14-9.93958E-15
 -1         6 1.73825E+02 1.73825E+02 2.52326E+02 0.00000E+00-8.39430E-15 3.40241E-16
 -1         7 1.73825E+02 1.73825E+02 2.52326E+02 0.00000E+00 7.58461E-14 5.54666E-14
 -1         8 1.73825E+02 1.73825E+02 2.52326E+02 0.00000E+00-1.15202E-16-1.47787E-14
 -1         9 1.73841E+02 1.73841E+02 2.52349E+02 0.00000E+00-1.64386E-14-8.03070E-15
 -1        10 1.73841E+02 1.73841E+02 2.52349E+02 0.00000E+00 1.72868E-14 1.51217E-14
 -1        11 1.73841E+02 1.73841E+02 2.52349E+02 0.00000E+00 9.99345E-15 8.78318E-15
 -1        12 1.73841E+02 1.73841E+02 2.52349E+02 0.00000E+00 9.50194E-15 6.74290E-15
 -1        13 1.73841E+02 1.73841E+02 2.52349E+02 0.00000E+00-6.75545E-15-9.94607E-16
 -1        14 1.73841E+02 1.73841E+02 2.52349E+02 0.00000E+00 1.60996E-14 3.50964E-15
 -1        15 1.73841E+02 1.73841E+02 2.52349E+02 0.00000E+00-4.56724E-14 9.78433E-15
 -1        16 1.73841E+02 1.73841E+02 2.52349E+02 0.00000E+00 1.74732E-14 1.64070E-14
 -1        17 1.73841E+02 1.73841E+02 2.52349E+02 0.00000E+00-1.91046E-15 8.93013E-15
 -1        18 1.73841E+02 1.73841E+02 2.52349E+02 0.00000E+00 2.39238E-14-3.08191E-14
 -1        19 1.73841E+02 1.73841E+02 2.52349E+02 0.00000E+00 2.05321E-14-4.40062E-15
 -1        20 1.73841E+02 1.73841E+02 2.52349E+02 0.00000E+00 9.04571E-15 1.75441E-14
 -3
    1PSTEP                       423          85           1          
  100CL  185 132269.2179          20                     0   85           1
 -4  TOSTRAIN    6    1
 -5  EXX         1    4    1    1
 -5  EYY         1    4    2    2
 -5  EZZ         1    4    3    3
 -5  EXY         1    4    1    2
 -5  EYZ         1    4    2    3
 -5  EZX         1    4    3    1
 -1         1 0.00000E+00 0.00000E+00 1.99992E-03 0.00000E+00 4.12546E-19 7.19066E-19
 -1         2 0.00000E+00 0.00000E+00 1.99992E-03 0.00000E+00-6.48839E-19-8.08690E-19
 -1         3 0.00000E+00 0.00000E+00 1.99992E-03 0.00000E+00-1.00914E-19-1.19850E-18
 -1         4 0.00000E+00 0.00000E+00 1.99992E-03 0.00000E+00-2.30863E-19 1.76134E-18
 -1         5 0.00000E+00 0.00000E+00 1.99992E-03 0.00000E+00 2.96159E-19-2.53224E-19
 -1         6 0.00000E+00 0.00000E+00 1.99992E-03 0.00000E+00-2.13856E-19 8.66809E-21
 -1         7 0.00000E+00 0.00000E+00 1.99992E-03 0.00000E+00 1.93228E-18 1.41309E-18
 -1         8 0.00000E+00 0.00000E+00 1.99992E-03 0.00000E+00-2.93494E-21-3.76507E-19
 -1         9 0.00000E+00 0.00000E+00 2.00010E-03 0.00000E+00-4.18795E-19-2.04593E-19
 -1        10 0.00000E+00 0.00000E+00 2.00010E-03 0.00000E+00 4.40404E-19 3.85247E-19
 -1        11 0.00000E+00 0.00000E+00 2.00010E-03 0.00000E+00 2.54597E-19 2.23763E-19
 -1        12 0.00000E+00 0.00000E+00 2.00010E-03 0.00000E+00 2.42075E-19 1.71784E-19
 -1        13 0.00000E+00 0.00000E+00 2.00010E-03 0.00000E+00-1.72104E-19-2.53389E-20
 -1        14 0.00000E+00 0.00000E+00 2.00010E-03 0.00000E+00 4.10158E-19 8.94127E-20
 -1        15 0.00000E+00 0.00000E+00 2.00010E-03 0.00000E+00-1.16356E-18 2.49269E-19
 -1        16 0.00000E+00 0.00000E+00 2.00010E-03 0.00000E+00 4.45153E-19 4.17991E-19
 -1        17 0.00000E+00 0.00000E+00 2.00010E-03 0.00000E+00-4.86716E-20 2.27507E-19
 -1        18 0.00000E+00 0.00000E+00 2.00010E-03 0.00000E+00 6.09490E-19-7.85158E-19
 -1        19 0.00000E+00 0.00000E+00 2.00010E-03 0.00000E+00 5.23083E-19-1.12112E-19
 -1        20 0.00000E+00 0.00000E+00 2.00010E-03 0.00000E+00 2.30452E-19 4.46960E-19
 -3
    1PSTEP                       424          85           1          
  100CL  185 132269.2179          20                     0   85           1
 -4  FORC        4    1
 -5  F1          1    2    1    0
 -5  F2          1    2    2    0
 -5  F3          1    2    3    0
 -5  ALL         1    2    0    0    1ALL
 -1         1-1.44860E+01-1.44860E+01 2.10280E+01
 -1         2-1.44860E+01 1.44860E+01 2.10280E+01
 -1         3-1.44860E+01 1.44860E+01-2.10280E+01
 -1         4-1.44860E+01-1.44860E+01-2.10280E+01
 -1         5 1.44860E+01-1.44860E+01 2.10280E+01
 -1         6 1.44860E+01 1.44860E+01 2.10280E+01
 -1         7 1.44860E+01 1.44860E+01-2.10280E+01
 -1         8 1.44860E+01-1.44860E+01-2.10280E+01
 -1         9 5.79440E+01-8.68647E-15-8.41120E+01
 -1        10 5.79440E+01-5.79440E+01 5.10703E-15
 -1        11 5.79440E+01 5.35580E-15 8.41120E+01
 -1        12 5.79440E+01 5.79440E+01 2.24543E-14
 -1        13 6.00446E-15 5.79440E+01-8.41120E+01
 -1        14 1.22888E-14-5.79440E+01-8.41120E+01
 -1        15-1.22888E-14-5.79440E+01 8.41120E+01
 -1        16-3.97830E-15 5.79440E+01 8.41120E+01
 -1        17-5.79440E+01-3.98519E-15-8.41120E+01
 -1        18-5.79440E+01-5.79440E+01 0.00000E+00
 -1        19-5.79440E+01 2.10430E-16 8.41120E+01
 -1        20-5.79440E+01 5.79440E+01 1.77636E-15
 -3
    1PSTEP                       425          85           1          
  100CL  185 132269.2179          20                     0   85           1
 -4  ERROR       1    1
 -5  STR(%)      1    1    0    0
 -1         1 1.09464E-14
 -1         2 1.09464E-14
 -1         3 1.09464E-14
 -1         4 1.09464E-14
 -1         5 1.09464E-14
 -1         6 1.09464E-14
 -1         7 1.09464E-14
 -1         8 1.09464E-14
 -1         9 1.09464E-14
 -1        10 1.09464E-14
 -1        11 1.09464E-14
 -1        12 1.09464E-14
 -1        13 1.09464E-14
 -1        14 1.09464E-14
 -1        15 1.09464E-14
 -1        16 1.09464E-14
 -1        17 1.09464E-14
 -1        18 1.09464E-14
 -1        19 1.09464E-14
 -1        20 1.09464E-14
 -3
    1PSTEP                       426          86           1          
  100CL  186 134932.8948          20                     0   86           1
 -4  DISP        4    1
 -5  D1          1    2    1    0
 -5  D2          1    2    2    0
 -5  D3          1    2    3    0
 -5  ALL         1    2    0    0    1ALL
 -1         1 0.00000E+00 0.00000E+00 0.00000E+00
 -1         2 0.00000E+00 0.00000E+00 0.00000E+00
 -1         3 0.00000E+00 0.00000E+00 2.00000E-03
 -1         4 0.00000E+00 0.00000E+00 2.00000E-03
 -1         5 0.00000E+00 0.00000E+00 0.00000E+00
 -1         6 0.00000E+00 0.00000E+00 0.00000E+00
 -1         7 0.00000E+00 0.00000E+00 2.00000E-03
 -1         8 0.00000E+00 0.00000E+00 2.00000E-03
 -1         9 0.00000E+00 0.00000E+00 0.00000E+00
 -1        10 0.00000E+00 0.00000E+00 1.00000E-03
 -1        11 0.00000E+00 0.00000E+00 2.00000E-03
 -1        12 0.00000E+00 0.00000E+00 1.00000E-03
 -1        13 0.00000E+00 0.00000E+00 0.00000E+00
 -1        14 0.00000E+00 0.00000E+00 0.00000E+00
 -1        15 0.00000E+00 0.00000E+00 2.00000E-03
 -1        16 0.00000E+00 0.00000E+00 2.00000E-03
 -1        17 0.00000E+00 0.00000E+00 0.00000E+00
 -1        18 0.00000E+00 0.00000E+00 1.00000E-03
 -1        19 0.00000E+00 0.00000E+00 2.00000E-03
 -1        20 0.00000E+00 0.00000E+00 1.00000E-03
 -3
    1PSTEP                       427          86           1          
  100CL  186 134932.8948          20                     0   86           1
 -4  STRESS      6    1
 -5  SXX         1    4    1    1
 -5  SYY         1    4    2    2
 -5  SZZ         1    4    3    3
 -5  SXY         1    4    1    2
 -5  SYZ         1    4    2    3
 -5  SZX         1    4    3    1
 -1         1 1.74102E+02 1.74102E+02 2.51772E+02 0.00000E+00 1.60218E-14 2.79258E-14
 -1         2 1.74102E+02 1.74102E+02 2.51772E+02 0.00000E+00-2.51985E-14-3.14065E-14
 -1         3 1.74102E+02 1.74102E+02 2.51772E+02 0.00000E+00-3.91911E-15-4.65454E-14
 -1         4 1.74102E+02 1.74102E+02 2.51772E+02 0.00000E+00-8.96585E-15 6.84038E-14
 -1         5 1.74102E+02 1.74102E+02 2.51772E+02 0.00000E+00 1.15017E-14-9.83429E-15
 -1         6 1.74102E+02 1.74102E+02 2.51772E+02 0.00000E+00-8.30538E-15 3.36637E-16
 -1         7 1.74102E+02 1.74102E+02 2.51772E+02 0.00000E+00 7.50427E-14 5.48790E-14
 -1         8 1.74102E+02 1.74102E+02 2.51772E+02 0.00000E+00-1.13982E-16-1.46221E-14
 -1         9 1.74118E+02 1.74118E+02 2.51794E+02 0.00000E+00-1.62645E-14-7.94563E-15
 -1        10 1.74118E+02 1.74118E+02 2.51794E+02 0.00000E+00 1.71037E-14 1.49616E-14
 -1        11 1.74118E+02 1.74118E+02 2.51794E+02 0.00000E+00 9.88759E-15 8.69014E-15
 -1        12 1.74118E+02 1.74118E+02 2.51794E+02 0.00000E+00 9.40128E-15 6.67147E-15
 -1        13 1.74118E+02 1.74118E+02 2.51794E+02 0.00000E+00-6.68389E-15-9.84071E-16
 -1        14 1.74118E+02 1.74118E+02 2.51794E+02 0.00000E+00 1.59290E-14 3.47246E-15
 -1        15 1.74118E+02 1.74118E+02 2.51794E+02 0.00000E+00-4.51886E-14 9.68068E-15
 -1        16 1.74118E+02 1.74118E+02 2.51794E+02 0.00000E+00 1.72881E-14 1.62332E-14
 -1        17 1.74118E+02 1.74118E+02 2.51794E+02 0.00000E+00-1.89022E-15 8.83553E-15
 -1        18 1.74118E+02 1.74118E+02 2.51794E+02 0.00000E+00 2.36703E-14-3.04926E-14
 -1        19 1.74118E+02 1.74118E+02 2.51794E+02 0.00000E+00 2.03146E-14-4.35400E-15
 -1        20 1.74118E+02 1.74118E+02 2.51794E+02 0.00000E+00 8.94989E-15 1.73583E-14
 -3
    1PSTEP                       428          86           1          
  100CL  186 134932.8948          20                     0   86           1
 -4  TOSTRAIN    6    1
 -5  EXX         1    4    1    1
 -5  EYY         1    4    2    2
 -5  EZZ         1    4    3    3
 -5  EXY         1    4    1    2
 -5  EYZ         1    4    2    3
 -5  EZX         1    4    3    1
 -1         1 0.00000E+00 0.00000E+00 1.99992E-03 0.00000E+00 4.12546E-19 7.19066E-19
 -1         2 0.00000E+00 0.00000E+00 1.99992E-03 0.00000E+00-6.48839E-19-8.08690E-19
 -1         3 0.00000E+00 0.00000E+00 1.99992E-03 0.00000E+00-1.00914E-19-1.19850E-18
 -1         4 0.00000E+00 0.00000E+00 1.99992E-03 0.00000E+00-2.30863E-19 1.76134E-18
 -1         5 0.00000E+00 0.00000E+00 1.99992E-03 0.00000E+00 2.96159E-19-2.53224E-19
 -1         6 0.00000E+00 0.00000E+00 1.99992E-03 0.00000E+00-2.13856E-19 8.66809E-21
 -1         7 0.00000E+00 0.00000E+00 1.99992E-03 0.00000E+00 1.93228E-18 1.41309E-18
 -1         8 0.00000E+00 0.00000E+00 1.99992E-03 0.00000E+00-2.93494E-21-3.76507E-19
 -1         9 0.00000E+00 0.00000E+00 2.00010E-03 0.00000E+00-4.18795E-19-2.04593E-19
 -1        10 0.00000E+00 0.00000E+00 2.00010E-03 0.00000E+00 4.40404E-19 3.85247E-19
 -1        11 0.00000E+00 0.00000E+00 2.00010E-03 0.00000E+00 2.54597E-19 2.23763E-19
 -1        12 0.00000E+00 0.00000E+00 2.00010E-03 0.00000E+00 2.42075E-19 1.71784E-19
 -1        13 0.00000E+00 0.00000E+00 2.00010E-03 0.00000E+00-1.72104E-19-2.53389E-20
 -1        14 0.00000E+00 0.00000E+00 2.00010E-03 0.00000E+00 4.10158E-19 8.94127E-20
 -1        15 0.00000E+00 0.00000E+00 2.00010E-03 0.00000E+00-1.16356E-18 2.49269E-19
 -1        16 0.00000E+00 0.00000E+00 2.00010E-03 0.00000E+00 4.45153E-19 4.17991E-19
 -1        17 0.00000E+00 0.00000E+00 2.00010E-03 0.00000E+00-4.86716E-20 2.27507E-19
 -1        18 0.00000E+00 0.00000E+00 2.00010E-03 0.00000E+00 6.09490E-19-7.85158E-19
 -1        19 0.00000E+00 0.00000E+00 2.00010E-03 0.00000E+00 5.23083E-19-1.12112E-19
 -1        20 0.00000E+00 0.00000E+00 2.00010E-03 0.00000E+00 2.30452E-19 4.46960E-19
 -3
    1PSTEP                       429          86           1          
  100CL  186 134932.8948          20                     0   86           1
 -4  FORC        4    1
 -5  F1          1    2    1    0
 -5  F2          1    2    2    0
 -5  F3          1    2    3    0
 -5  ALL         1    2    0    0    1ALL
 -1         1-1.45091E+01-1.45091E+01 2.09818E+01
 -1         2-1.45091E+01 1.45091E+01 2.09818E+01
 -1         3-1.45091E+01 1.45091E+01-2.09818E+01
 -1         4-1.45091E+01-1.45091E+01-2.09818E+01
 -1         5 1.45091E+01-1.45091E+01 2.09818E+01
 -1         6 1.45091E+01 1.45091E+01 2.09818E+01
 -1         7 1.45091E+01 1.45091E+01-2.09818E+01
 -1         8 1.45091E+01-1.45091E+01-2.09818E+01
 -1         9 5.80364E+01-5.13347E-15-8.39272E+01
 -1        10 5.80364E+01-5.80364E+01 3.55271E-15
 -1        11 5.80364E+01 3.57916E-15 8.39272E+01
 -1        12 5.80364E+01 5.80364E+01 1.82077E-14
 -1        13-1.00103E-14 5.80364E+01-8.39272E+01
 -1        14 8.95969E-15-5.80364E+01-8.39272E+01
 -1        15 1.44139E-16-5.80364E+01 8.39272E+01
 -1        16 1.83081E-17 5.80364E+01 8.39272E+01
 -1        17-5.80364E+01-4.30246E-16-8.39272E+01
 -1        18-5.80364E+01-5.80364E+01 0.00000E+00
 -1        19-5.80364E+01 2.08201E-16 8.39272E+01
 -1        20-5.80364E+01 5.80364E+01 6.21725E-15
 -3
    1PSTEP                       430          86           1          
  100CL  186 134932.8948          20                     0   86           1
 -4  ERROR       1    1
 -5  STR(%)      1    1    0    0
 -1         1 2.59827E-14
 -1         2 2.59827E-14
 -1         3 2.59827E-14
 -1         4 2.59827E-14
 -1         5 2.59827E-14
 -1         6 2.59827E-14
 -1         7 2.59827E-14
 -1         8 2.59827E-14
 -1         9 2.59827E-14
 -1        10 2.59827E-14
 -1        11 2.59827E-14
 -1        12 2.59827E-14
 -1        13 2.59827E-14
 -1        14 2.59827E-14
 -1        15 2.59827E-14
 -1        16 2.59827E-14
 -1        17 2.59827E-14
 -1        18 2.59827E-14
 -1        19 2.59827E-14
 -1        20 2.59827E-14
 -3
    1PSTEP                       431          87           1          
  100CL  187 136655.4574          20                     0   87           1
 -4  DISP        4    1
 -5  D1          1    2    1    0
 -5  D2          1    2    2    0
 -5  D3          1    2    3    0
 -5  ALL         1    2    0    0    1ALL
 -1         1 0.00000E+00 0.00000E+00 0.00000E+00
 -1         2 0.00000E+00 0.00000E+00 0.00000E+00
 -1         3 0.00000E+00 0.00000E+00 2.00000E-03
 -1         4 0.00000E+00 0.00000E+00 2.00000E-03
 -1         5 0.00000E+00 0.00000E+00 0.00000E+00
 -1         6 0.00000E+00 0.00000E+00 0.00000E+00
 -1         7 0.00000E+00 0.00000E+00 2.00000E-03
 -1         8 0.00000E+00 0.00000E+00 2.00000E-03
 -1         9 0.00000E+00 0.00000E+00 0.00000E+00
 -1        10 0.00000E+00 0.00000E+00 1.00000E-03
 -1        11 0.00000E+00 0.00000E+00 2.00000E-03
 -1        12 0.00000E+00 0.00000E+00 1.00000E-03
 -1        13 0.00000E+00 0.00000E+00 0.00000E+00
 -1        14 0.00000E+00 0.00000E+00 0.00000E+00
 -1        15 0.00000E+00 0.00000E+00 2.00000E-03
 -1        16 0.00000E+00 0.00000E+00 2.00000E-03
 -1        17 0.00000E+00 0.00000E+00 0.00000E+00
 -1        18 0.00000E+00 0.00000E+00 1.00000E-03
 -1        19 0.00000E+00 0.00000E+00 2.00000E-03
 -1        20 0.00000E+00 0.00000E+00 1.00000E-03
 -3
    1PSTEP                       432          87           1          
  100CL  187 136655.4574          20                     0   87           1
 -4  STRESS      6    1
 -5  SXX         1    4    1    1
 -5  SYY         1    4    2    2
 -5  SZZ         1    4    3    3
 -5  SXY         1    4    1    2
 -5  SYZ         1    4    2    3
 -5  SZX         1    4    3    1
 -1         1 1.74280E+02 1.74280E+02 2.51416E+02 0.00000E+00 1.59116E-14 2.77338E-14
 -1         2 1.74280E+02 1.74280E+02 2.51416E+02 0.00000E+00-2.50252E-14-3.11906E-14
 -1         3 1.74280E+02 1.74280E+02 2.51416E+02 0.00000E+00-3.89217E-15-4.62253E-14
 -1         4 1.74280E+02 1.74280E+02 2.51416E+02 0.00000E+00-8.90421E-15 6.79335E-14
 -1         5 1.74280E+02 1.74280E+02 2.51416E+02 0.00000E+00 1.14226E-14-9.76667E-15
 -1         6 1.74280E+02 1.74280E+02 2.51416E+02 0.00000E+00-8.24828E-15 3.34322E-16
 -1         7 1.74280E+02 1.74280E+02 2.51416E+02 0.00000E+00 7.45267E-14 5.45017E-14
 -1         8 1.74280E+02 1.74280E+02 2.51416E+02 0.00000E+00-1.13198E-16-1.45216E-14
 -1         9 1.74296E+02 1.74296E+02 2.51438E+02 0.00000E+00-1.61526E-14-7.89100E-15
 -1        10 1.74296E+02 1.74296E+02 2.51438E+02 0.00000E+00 1.69861E-14 1.48587E-14
 -1        11 1.74296E+02 1.74296E+02 2.51438E+02 0.00000E+00 9.81960E-15 8.63039E-15
 -1        12 1.74296E+02 1.74296E+02 2.51438E+02 0.00000E+00 9.33664E-15 6.62560E-15
 -1        13 1.74296E+02 1.74296E+02 2.51438E+02 0.00000E+00-6.63793E-15-9.77304E-16
 -1        14 1.74296E+02 1.74296E+02 2.51438E+02 0.00000E+00 1.58195E-14 3.44858E-15
 -1        15 1.74296E+02 1.74296E+02 2.51438E+02 0.00000E+00-4.48778E-14 9.61412E-15
 -1        16 1.74296E+02 1.74296E+02 2.51438E+02 0.00000E+00 1.71692E-14 1.61216E-14
 -1        17 1.74296E+02 1.74296E+02 2.51438E+02 0.00000E+00-1.87723E-15 8.77478E-15
 -1        18 1.74296E+02 1.74296E+02 2.51438E+02 0.00000E+00 2.35076E-14-3.02830E-14
 -1        19 1.74296E+02 1.74296E+02 2.51438E+02 0.00000E+00 2.01749E-14-4.32406E-15
 -1        20 1.74296E+02 1.74296E+02 2.51438E+02 0.00000E+00 8.88835E-15 1.72389E-14
 -3
    1PSTEP                       433          87           1          
  100CL  187 136655.4574          20                     0   87           1
 -4  TOSTRAIN    6    1
 -5  EXX         1    4    1    1
 -5  EYY         1    4    2    2
 -5  EZZ         1    4    3    3
 -5  EXY         1    4    1    2
 -5  EYZ         1    4    2    3
 -5  EZX         1    4    3    1
 -1         1 0.00000E+00 0.00000E+00 1.99992E-03 0.00000E+00 4.12546E-19 7.19066E-19
 -1         2 0.00000E+00 0.00000E+00 1.99992E-03 0.00000E+00-6.48839E-19-8.08690E-19
 -1         3 0.00000E+00 0.00000E+00 1.99992E-03 0.00000E+00-1.00914E-19-1.19850E-18
 -1         4 0.00000E+00 0.00000E+00 1.99992E-03 0.00000E+00-2.30863E-19 1.76134E-18
 -1         5 0.00000E+00 0.00000E+00 1.99992E-03 0.00000E+00 2.96159E-19-2.53224E-19
 -1         6 0.00000E+00 0.00000E+00 1.99992E-03 0.00000E+00-2.13856E-19 8.66809E-21
 -1         7 0.00000E+00 0.00000E+00 1.99992E-03 0.00000E+00 1.93228E-18 1.41309E-18
 -1         8 0.00000E+00 0.00000E+00 1.99992E-03 0.00000E+00-2.93494E-21-3.76507E-19
 -1         9 0.00000E+00 0.00000E+00 2.00010E-03 0.00000E+00-4.18795E-19-2.04593E-19
 -1        10 0.00000E+00 0.00000E+00 2.00010E-03 0.00000E+00 4.40404E-19 3.85247E-19
 -1        11 0.00000E+00 0.00000E+00 2.00010E-03 0.00000E+00 2.54597E-19 2.23763E-19
 -1        12 0.00000E+00 0.00000E+00 2.00010E-03 0.00000E+00 2.42075E-19 1.71784E-19
 -1        13 0.00000E+00 0.00000E+00 2.00010E-03 0.00000E+00-1.72104E-19-2.53389E-20
 -1        14 0.00000E+00 0.00000E+00 2.00010E-03 0.00000E+00 4.10158E-19 8.94127E-20
 -1        15 0.00000E+00 0.00000E+00 2.00010E-03 0.00000E+00-1.16356E-18 2.49269E-19
 -1        16 0.00000E+00 0.00000E+00 2.00010E-03 0.00000E+00 4.45153E-19 4.17991E-19
 -1        17 0.00000E+00 0.00000E+00 2.00010E-03 0.00000E+00-4.86716E-20 2.27507E-19
 -1        18 0.00000E+00 0.00000E+00 2.00010E-03 0.00000E+00 6.09490E-19-7.85158E-19
 -1        19 0.00000E+00 0.00000E+00 2.00010E-03 0.00000E+00 5.23083E-19-1.12112E-19
 -1        20 0.00000E+00 0.00000E+00 2.00010E-03 0.00000E+00 2.30452E-19 4.46960E-19
 -3
    1PSTEP                       434          87           1          
  100CL  187 136655.4574          20                     0   87           1
 -4  FORC        4    1
 -5  F1          1    2    1    0
 -5  F2          1    2    2    0
 -5  F3          1    2    3    0
 -5  ALL         1    2    0    0    1ALL
 -1         1-1.45239E+01-1.45239E+01 2.09521E+01
 -1         2-1.45239E+01 1.45239E+01 2.09521E+01
 -1         3-1.45239E+01 1.45239E+01-2.09521E+01
 -1         4-1.45239E+01-1.45239E+01-2.09521E+01
 -1         5 1.45239E+01-1.45239E+01 2.09521E+01
 -1         6 1.45239E+01 1.45239E+01 2.09521E+01
 -1         7 1.45239E+01 1.45239E+01-2.09521E+01
 -1         8 1.45239E+01-1.45239E+01-2.09521E+01
 -1         9 5.80957E+01-8.24191E-15-8.38086E+01
 -1        10 5.80957E+01-5.80957E+01 1.33227E-15
 -1        11 5.80957E+01 5.13329E-15 8.38086E+01
 -1        12 5.80957E+01 5.80957E+01 2.00118E-14
 -1        13-1.17865E-14 5.80957E+01-8.38086E+01
 -1        14 8.51659E-15-5.80957E+01-8.38086E+01
 -1        15 3.69586E-15-5.80957E+01 8.38086E+01
 -1        16-2.20226E-15 5.80957E+01 8.38086E+01
 -1        17-5.80957E+01-3.98153E-15-8.38086E+01
 -1        18-5.80957E+01-5.80957E+01-3.55271E-15
 -1        19-5.80957E+01 2.06770E-16 8.38086E+01
 -1        20-5.80957E+01 5.80957E+01 3.99680E-15
 -3
    1PSTEP                       435          87           1          
  100CL  187 136655.4574          20                     0   87           1
 -4  ERROR       1    1
 -5  STR(%)      1    1    0    0
 -1         1 9.25137E-15
 -1         2 9.25137E-15
 -1         3 9.25137E-15
 -1         4 9.25137E-15
 -1         5 9.25137E-15
 -1         6 9.25137E-15
 -1         7 9.25137E-15
 -1         8 9.25137E-15
 -1         9 9.25137E-15
 -1        10 9.25137E-15
 -1        11 9.25137E-15
 -1        12 9.25137E-15
 -1        13 9.25137E-15
 -1        14 9.25137E-15
 -1        15 9.25137E-15
 -1        16 9.25137E-15
 -1        17 9.25137E-15
 -1        18 9.25137E-15
 -1        19 9.25137E-15
 -1        20 9.25137E-15
 -3
    1PSTEP                       436          88           1          
  100CL  188 138378.0200          20                     0   88           1
 -4  DISP        4    1
 -5  D1          1    2    1    0
 -5  D2          1    2    2    0
 -5  D3          1    2    3    0
 -5  ALL         1    2    0    0    1ALL
 -1         1 0.00000E+00 0.00000E+00 0.00000E+00
 -1         2 0.00000E+00 0.00000E+00 0.00000E+00
 -1         3 0.00000E+00 0.00000E+00 2.00000E-03
 -1         4 0.00000E+00 0.00000E+00 2.00000E-03
 -1         5 0.00000E+00 0.00000E+00 0.00000E+00
 -1         6 0.00000E+00 0.00000E+00 0.00000E+00
 -1         7 0.00000E+00 0.00000E+00 2.00000E-03
 -1         8 0.00000E+00 0.00000E+00 2.00000E-03
 -1         9 0.00000E+00 0.00000E+00 0.00000E+00
 -1        10 0.00000E+00 0.00000E+00 1.00000E-03
 -1        11 0.00000E+00 0.00000E+00 2.00000E-03
 -1        12 0.00000E+00 0.00000E+00 1.00000E-03
 -1        13 0.00000E+00 0.00000E+00 0.00000E+00
 -1        14 0.00000E+00 0.00000E+00 0.00000E+00
 -1        15 0.00000E+00 0.00000E+00 2.00000E-03
 -1        16 0.00000E+00 0.00000E+00 2.00000E-03
 -1        17 0.00000E+00 0.00000E+00 0.00000E+00
 -1        18 0.00000E+00 0.00000E+00 1.00000E-03
 -1        19 0.00000E+00 0.00000E+00 2.00000E-03
 -1        20 0.00000E+00 0.00000E+00 1.00000E-03
 -3
    1PSTEP                       437          88           1          
  100CL  188 138378.0200          20                     0   88           1
 -4  STRESS      6    1
 -5  SXX         1    4    1    1
 -5  SYY         1    4    2    2
 -5  SZZ         1    4    3    3
 -5  SXY         1    4    1    2
 -5  SYZ         1    4    2    3
 -5  SZX         1    4    3    1
 -1         1 1.74457E+02 1.74457E+02 2.51062E+02 0.00000E+00 1.58022E-14 2.75431E-14
 -1         2 1.74457E+02 1.74457E+02 2.51062E+02 0.00000E+00-2.48532E-14-3.09761E-14
 -1         3 1.74457E+02 1.74457E+02 2.51062E+02 0.00000E+00-3.86540E-15-4.59075E-14
 -1         4 1.74457E+02 1.74457E+02 2.51062E+02 0.00000E+00-8.84298E-15 6.74663E-14
 -1         5 1.74457E+02 1.74457E+02 2.51062E+02 0.00000E+00 1.13441E-14-9.69951E-15
 -1         6 1.74457E+02 1.74457E+02 2.51062E+02 0.00000E+00-8.19156E-15 3.32023E-16
 -1         7 1.74457E+02 1.74457E+02 2.51062E+02 0.00000E+00 7.40143E-14 5.41269E-14
 -1         8 1.74457E+02 1.74457E+02 2.51062E+02 0.00000E+00-1.12420E-16-1.44217E-14
 -1         9 1.74473E+02 1.74473E+02 2.51085E+02 0.00000E+00-1.60416E-14-7.83674E-15
 -1        10 1.74473E+02 1.74473E+02 2.51085E+02 0.00000E+00 1.68693E-14 1.47565E-14
 -1        11 1.74473E+02 1.74473E+02 2.51085E+02 0.00000E+00 9.75208E-15 8.57104E-15
 -1        12 1.74473E+02 1.74473E+02 2.51085E+02 0.00000E+00 9.27244E-15 6.58004E-15
 -1        13 1.74473E+02 1.74473E+02 2.51085E+02 0.00000E+00-6.59229E-15-9.70584E-16
 -1        14 1.74473E+02 1.74473E+02 2.51085E+02 0.00000E+00 1.57107E-14 3.42487E-15
 -1        15 1.74473E+02 1.74473E+02 2.51085E+02 0.00000E+00-4.45693E-14 9.54801E-15
 -1        16 1.74473E+02 1.74473E+02 2.51085E+02 0.00000E+00 1.70512E-14 1.60107E-14
 -1        17 1.74473E+02 1.74473E+02 2.51085E+02 0.00000E+00-1.86432E-15 8.71444E-15
 -1        18 1.74473E+02 1.74473E+02 2.51085E+02 0.00000E+00 2.33459E-14-3.00747E-14
 -1        19 1.74473E+02 1.74473E+02 2.51085E+02 0.00000E+00 2.00362E-14-4.29433E-15
 -1        20 1.74473E+02 1.74473E+02 2.51085E+02 0.00000E+00 8.82723E-15 1.71204E-14
 -3
    1PSTEP                       438          88           1          
  100CL  188 138378.0200          20                     0   88           1
 -4  TOSTRAIN    6    1
 -5  EXX         1    4    1    1
 -5  EYY         1    4    2    2
 -5  EZZ         1    4    3    3
 -5  EXY         1    4    1    2
 -5  EYZ         1    4    2    3
 -5  EZX         1    4    3    1
 -1         1 0.00000E+00 0.00000E+00 1.99992E-03 0.00000E+00 4.12546E-19 7.19066E-19
 -1         2 0.00000E+00 0.00000E+00 1.99992E-03 0.00000E+00-6.48839E-19-8.08690E-19
 -1         3 0.00000E+00 0.00000E+00 1.99992E-03 0.00000E+00-1.00914E-19-1.19850E-18
 -1         4 0.00000E+00 0.00000E+00 1.99992E-03 0.00000E+00-2.30863E-19 1.76134E-18
 -1         5 0.00000E+00 0.00000E+00 1.99992E-03 0.00000E+00 2.96159E-19-2.53224E-19
 -1         6 0.00000E+00 0.00000E+00 1.99992E-03 0.00000E+00-2.13856E-19 8.66809E-21
 -1         7 0.00000E+00 0.00000E+00 1.99992E-03 0.00000E+00 1.93228E-18 1.41309E-18
 -1         8 0.00000E+00 0.00000E+00 1.99992E-03 0.00000E+00-2.93494E-21-3.76507E-19
 -1         9 0.00000E+00 0.00000E+00 2.00010E-03 0.00000E+00-4.18795E-19-2.04593E-19
 -1        10 0.00000E+00 0.00000E+00 2.00010E-03 0.00000E+00 4.40404E-19 3.85247E-19
 -1        11 0.00000E+00 0.00000E+00 2.00010E-03 0.00000E+00 2.54597E-19 2.23763E-19
 -1        12 0.00000E+00 0.00000E+00 2.00010E-03 0.00000E+00 2.42075E-19 1.71784E-19
 -1        13 0.00000E+00 0.00000E+00 2.00010E-03 0.00000E+00-1.72104E-19-2.53389E-20
 -1        14 0.00000E+00 0.00000E+00 2.00010E-03 0.00000E+00 4.10158E-19 8.94127E-20
 -1        15 0.00000E+00 0.00000E+00 2.00010E-03 0.00000E+00-1.16356E-18 2.49269E-19
 -1        16 0.00000E+00 0.00000E+00 2.00010E-03 0.00000E+00 4.45153E-19 4.17991E-19
 -1        17 0.00000E+00 0.00000E+00 2.00010E-03 0.00000E+00-4.86716E-20 2.27507E-19
 -1        18 0.00000E+00 0.00000E+00 2.00010E-03 0.00000E+00 6.09490E-19-7.85158E-19
 -1        19 0.00000E+00 0.00000E+00 2.00010E-03 0.00000E+00 5.23083E-19-1.12112E-19
 -1        20 0.00000E+00 0.00000E+00 2.00010E-03 0.00000E+00 2.30452E-19 4.46960E-19
 -3
    1PSTEP                       439          88           1          
  100CL  188 138378.0200          20                     0   88           1
 -4  FORC        4    1
 -5  F1          1    2    1    0
 -5  F2          1    2    2    0
 -5  F3          1    2    3    0
 -5  ALL         1    2    0    0    1ALL
 -1         1-1.45387E+01-1.45387E+01 2.09227E+01
 -1         2-1.45387E+01 1.45387E+01 2.09227E+01
 -1         3-1.45387E+01 1.45387E+01-2.09227E+01
 -1         4-1.45387E+01-1.45387E+01-2.09227E+01
 -1         5 1.45387E+01-1.45387E+01 2.09227E+01
 -1         6 1.45387E+01 1.45387E+01 2.09227E+01
 -1         7 1.45387E+01 1.45387E+01-2.09227E+01
 -1         8 1.45387E+01-1.45387E+01-2.09227E+01
 -1         9 5.81547E+01-8.90787E-15-8.36907E+01
 -1        10 5.81547E+01-5.81547E+01 4.66294E-15
 -1        11 5.81547E+01 3.57880E-15 8.36907E+01
 -1        12 5.81547E+01 5.81547E+01 2.07334E-14
 -1        13 3.56241E-15 5.81547E+01-8.36907E+01
 -1        14 2.11741E-14-5.81547E+01-8.36907E+01
 -1        15-1.05160E-14-5.81547E+01 8.36907E+01
 -1        16-4.86692E-15 5.81547E+01 8.36907E+01
 -1        17-5.81547E+01-3.98011E-15-8.36907E+01
 -1        18-5.81547E+01-5.81547E+01-3.55271E-15
 -1        19-5.81547E+01 2.05348E-16 8.36907E+01
 -1        20-5.81547E+01 5.81547E+01 7.32747E-15
 -3
    1PSTEP                       440          88           1          
  100CL  188 138378.0200          20                     0   88           1
 -4  ERROR       1    1
 -5  STR(%)      1    1    0    0
 -1         1 4.05318E-15
 -1         2 4.05318E-15
 -1         3 4.05318E-15
 -1         4 4.05318E-15
 -1         5 4.05318E-15
 -1         6 4.05318E-15
 -1         7 4.05318E-15
 -1         8 4.05318E-15
 -1         9 4.05318E-15
 -1        10 4.05318E-15
 -1        11 4.05318E-15
 -1        12 4.05318E-15
 -1        13 4.05318E-15
 -1        14 4.05318E-15
 -1        15 4.05318E-15
 -1        16 4.05318E-15
 -1        17 4.05318E-15
 -1        18 4.05318E-15
 -1        19 4.05318E-15
 -1        20 4.05318E-15
 -3
    1PSTEP                       441          89           1          
  100CL  189 140961.8639          20                     0   89           1
 -4  DISP        4    1
 -5  D1          1    2    1    0
 -5  D2          1    2    2    0
 -5  D3          1    2    3    0
 -5  ALL         1    2    0    0    1ALL
 -1         1 0.00000E+00 0.00000E+00 0.00000E+00
 -1         2 0.00000E+00 0.00000E+00 0.00000E+00
 -1         3 0.00000E+00 0.00000E+00 2.00000E-03
 -1         4 0.00000E+00 0.00000E+00 2.00000E-03
 -1         5 0.00000E+00 0.00000E+00 0.00000E+00
 -1         6 0.00000E+00 0.00000E+00 0.00000E+00
 -1         7 0.00000E+00 0.00000E+00 2.00000E-03
 -1         8 0.00000E+00 0.00000E+00 2.00000E-03
 -1         9 0.00000E+00 0.00000E+00 0.00000E+00
 -1        10 0.00000E+00 0.00000E+00 1.00000E-03
 -1        11 0.00000E+00 0.00000E+00 2.00000E-03
 -1        12 0.00000E+00 0.00000E+00 1.00000E-03
 -1        13 0.00000E+00 0.00000E+00 0.00000E+00
 -1        14 0.00000E+00 0.00000E+00 0.00000E+00
 -1        15 0.00000E+00 0.00000E+00 2.00000E-03
 -1        16 0.00000E+00 0.00000E+00 2.00000E-03
 -1        17 0.00000E+00 0.00000E+00 0.00000E+00
 -1        18 0.00000E+00 0.00000E+00 1.00000E-03
 -1        19 0.00000E+00 0.00000E+00 2.00000E-03
 -1        20 0.00000E+00 0.00000E+00 1.00000E-03
 -3
    1PSTEP                       442          89           1          
  100CL  189 140961.8639          20                     0   89           1
 -4  STRESS      6    1
 -5  SXX         1    4    1    1
 -5  SYY         1    4    2    2
 -5  SZZ         1    4    3    3
 -5  SXY         1    4    1    2
 -5  SYZ         1    4    2    3
 -5  SZX         1    4    3    1
 -1         1 1.74719E+02 1.74719E+02 2.50537E+02 0.00000E+00 1.56398E-14 2.72600E-14
 -1         2 1.74719E+02 1.74719E+02 2.50537E+02 0.00000E+00-2.45977E-14-3.06577E-14
 -1         3 1.74719E+02 1.74719E+02 2.50537E+02 0.00000E+00-3.82567E-15-4.54356E-14
 -1         4 1.74719E+02 1.74719E+02 2.50537E+02 0.00000E+00-8.75208E-15 6.67729E-14
 -1         5 1.74719E+02 1.74719E+02 2.50537E+02 0.00000E+00 1.12275E-14-9.59981E-15
 -1         6 1.74719E+02 1.74719E+02 2.50537E+02 0.00000E+00-8.10736E-15 3.28610E-16
 -1         7 1.74719E+02 1.74719E+02 2.50537E+02 0.00000E+00 7.32535E-14 5.35706E-14
 -1         8 1.74719E+02 1.74719E+02 2.50537E+02 0.00000E+00-1.11264E-16-1.42735E-14
 -1         9 1.74735E+02 1.74735E+02 2.50560E+02 0.00000E+00-1.58767E-14-7.75619E-15
 -1        10 1.74735E+02 1.74735E+02 2.50560E+02 0.00000E+00 1.66959E-14 1.46048E-14
 -1        11 1.74735E+02 1.74735E+02 2.50560E+02 0.00000E+00 9.65184E-15 8.48294E-15
 -1        12 1.74735E+02 1.74735E+02 2.50560E+02 0.00000E+00 9.17713E-15 6.51241E-15
 -1        13 1.74735E+02 1.74735E+02 2.50560E+02 0.00000E+00-6.52453E-15-9.60608E-16
 -1        14 1.74735E+02 1.74735E+02 2.50560E+02 0.00000E+00 1.55492E-14 3.38967E-15
 -1        15 1.74735E+02 1.74735E+02 2.50560E+02 0.00000E+00-4.41111E-14 9.44987E-15
 -1        16 1.74735E+02 1.74735E+02 2.50560E+02 0.00000E+00 1.68759E-14 1.58462E-14
 -1        17 1.74735E+02 1.74735E+02 2.50560E+02 0.00000E+00-1.84516E-15 8.62487E-15
 -1        18 1.74735E+02 1.74735E+02 2.50560E+02 0.00000E+00 2.31060E-14-2.97656E-14
 -1        19 1.74735E+02 1.74735E+02 2.50560E+02 0.00000E+00 1.98303E-14-4.25019E-15
 -1        20 1.74735E+02 1.74735E+02 2.50560E+02 0.00000E+00 8.73650E-15 1.69444E-14
 -3
    1PSTEP                       443          89           1          
  100CL  189 140961.8639          20                     0   89           1
 -4  TOSTRAIN    6    1
 -5  EXX         1    4    1    1
 -5  EYY         1    4    2    2
 -5  EZZ         1    4    3    3
 -5  EXY         1    4    1    2
 -5  EYZ         1    4    2    3
 -5  EZX         1    4    3    1
 -1         1 0.00000E+00 0.00000E+00 1.99992E-03 0.00000E+00 4.12546E-19 7.19066E-19
 -1         2 0.00000E+00 0.00000E+00 1.99992E-03 0.00000E+00-6.48839E-19-8.08690E-19
 -1         3 0.00000E+00 0.00000E+00 1.99992E-03 0.00000E+00-1.00914E-19-1.19850E-18
 -1         4 0.00000E+00 0.00000E+00 1.99992E-03 0.00000E+00-2.30863E-19 1.76134E-18
 -1         5 0.00000E+00 0.00000E+00 1.99992E-03 0.00000E+00 2.96159E-19-2.53224E-19
 -1         6 0.00000E+00 0.00000E+00 1.99992E-03 0.00000E+00-2.13856E-19 8.66809E-21
 -1         7 0.00000E+00 0.00000E+00 1.99992E-03 0.00000E+00 1.93228E-18 1.41309E-18
 -1         8 0.00000E+00 0.00000E+00 1.99992E-03 0.00000E+00-2.93494E-21-3.76507E-19
 -1         9 0.00000E+00 0.00000E+00 2.00010E-03 0.00000E+00-4.18795E-19-2.04593E-19
 -1        10 0.00000E+00 0.00000E+00 2.00010E-03 0.00000E+00 4.40404E-19 3.85247E-19
 -1        11 0.00000E+00 0.00000E+00 2.00010E-03 0.00000E+00 2.54597E-19 2.23763E-19
 -1        12 0.00000E+00 0.00000E+00 2.00010E-03 0.00000E+00 2.42075E-19 1.71784E-19
 -1        13 0.00000E+00 0.00000E+00 2.00010E-03 0.00000E+00-1.72104E-19-2.53389E-20
 -1        14 0.00000E+00 0.00000E+00 2.00010E-03 0.00000E+00 4.10158E-19 8.94127E-20
 -1        15 0.00000E+00 0.00000E+00 2.00010E-03 0.00000E+00-1.16356E-18 2.49269E-19
 -1        16 0.00000E+00 0.00000E+00 2.00010E-03 0.00000E+00 4.45153E-19 4.17991E-19
 -1        17 0.00000E+00 0.00000E+00 2.00010E-03 0.00000E+00-4.86716E-20 2.27507E-19
 -1        18 0.00000E+00 0.00000E+00 2.00010E-03 0.00000E+00 6.09490E-19-7.85158E-19
 -1        19 0.00000E+00 0.00000E+00 2.00010E-03 0.00000E+00 5.23083E-19-1.12112E-19
 -1        20 0.00000E+00 0.00000E+00 2.00010E-03 0.00000E+00 2.30452E-19 4.46960E-19
 -3
    1PSTEP                       444          89           1          
  100CL  189 140961.8639          20                     0   89           1
 -4  FORC        4    1
 -5  F1          1    2    1    0
 -5  F2          1    2    2    0
 -5  F3          1    2    3    0
 -5  ALL         1    2    0    0    1ALL
 -1         1-1.45605E+01-1.45605E+01 2.08789E+01
 -1         2-1.45605E+01 1.45605E+01 2.08789E+01
 -1         3-1.45605E+01 1.45605E+01-2.08789E+01
 -1         4-1.45605E+01-1.45605E+01-2.08789E+01
 -1         5 1.45605E+01-1.45605E+01 2.08789E+01
 -1         6 1.45605E+01 1.45605E+01 2.08789E+01
 -1         7 1.45605E+01 1.45605E+01-2.08789E+01
 -1         8 1.45605E+01-1.45605E+01-2.08789E+01
 -1         9 5.82421E+01-1.09060E-14-8.35157E+01
 -1        10 5.82421E+01-5.82421E+01 6.66134E-15
 -1        11 5.82421E+01 1.80217E-15 8.35157E+01
 -1        12 5.82421E+01 5.82421E+01 2.33424E-14
 -1        13-1.50059E-14 5.82421E+01-8.35157E+01
 -1        14 3.18997E-15-5.82421E+01-8.35157E+01
 -1        15 1.61279E-14-5.82421E+01 8.35157E+01
 -1        16 7.78943E-15 5.82421E+01 8.35157E+01
 -1        17-5.82421E+01-2.20164E-15-8.35157E+01
 -1        18-5.82421E+01-5.82421E+01-3.55271E-15
 -1        19-5.82421E+01-1.57312E-15 8.35157E+01
 -1        20-5.82421E+01 5.82421E+01 6.66134E-16
 -3
    1PSTEP                       445          89           1          
  100CL  189 140961.8639          20                     0   89           1
 -4  ERROR       1    1
 -5  STR(%)      1    1    0    0
 -1         1 4.00364E-14
 -1         2 4.00364E-14
 -1         3 4.00364E-14
 -1         4 4.00364E-14
 -1         5 4.00364E-14
 -1         6 4.00364E-14
 -1         7 4.00364E-14
 -1         8 4.00364E-14
 -1         9 4.00364E-14
 -1        10 4.00364E-14
 -1        11 4.00364E-14
 -1        12 4.00364E-14
 -1        13 4.00364E-14
 -1        14 4.00364E-14
 -1        15 4.00364E-14
 -1        16 4.00364E-14
 -1        17 4.00364E-14
 -1        18 4.00364E-14
 -1        19 4.00364E-14
 -1        20 4.00364E-14
 -3
    1PSTEP                       446          90           1          
  100CL  190 142780.1604          20                     0   90           1
 -4  DISP        4    1
 -5  D1          1    2    1    0
 -5  D2          1    2    2    0
 -5  D3          1    2    3    0
 -5  ALL         1    2    0    0    1ALL
 -1         1 0.00000E+00 0.00000E+00 0.00000E+00
 -1         2 0.00000E+00 0.00000E+00 0.00000E+00
 -1         3 0.00000E+00 0.00000E+00 2.00000E-03
 -1         4 0.00000E+00 0.00000E+00 2.00000E-03
 -1         5 0.00000E+00 0.00000E+00 0.00000E+00
 -1         6 0.00000E+00 0.00000E+00 0.00000E+00
 -1         7 0.00000E+00 0.00000E+00 2.00000E-03
 -1         8 0.00000E+00 0.00000E+00 2.00000E-03
 -1         9 0.00000E+00 0.00000E+00 0.00000E+00
 -1        10 0.00000E+00 0.00000E+00 1.00000E-03
 -1        11 0.00000E+00 0.00000E+00 2.00000E-03
 -1        12 0.00000E+00 0.00000E+00 1.00000E-03
 -1        13 0.00000E+00 0.00000E+00 0.00000E+00
 -1        14 0.00000E+00 0.00000E+00 0.00000E+00
 -1        15 0.00000E+00 0.00000E+00 2.00000E-03
 -1        16 0.00000E+00 0.00000E+00 2.00000E-03
 -1        17 0.00000E+00 0.00000E+00 0.00000E+00
 -1        18 0.00000E+00 0.00000E+00 1.00000E-03
 -1        19 0.00000E+00 0.00000E+00 2.00000E-03
 -1        20 0.00000E+00 0.00000E+00 1.00000E-03
 -3
    1PSTEP                       447          90           1          
  100CL  190 142780.1604          20                     0   90           1
 -4  STRESS      6    1
 -5  SXX         1    4    1    1
 -5  SYY         1    4    2    2
 -5  SZZ         1    4    3    3
 -5  SXY         1    4    1    2
 -5  SYZ         1    4    2    3
 -5  SZX         1    4    3    1
 -1         1 1.74903E+02 1.74903E+02 2.50170E+02 0.00000E+00 1.55263E-14 2.70622E-14
 -1         2 1.74903E+02 1.74903E+02 2.50170E+02 0.00000E+00-2.44192E-14-3.04353E-14
 -1         3 1.74903E+02 1.74903E+02 2.50170E+02 0.00000E+00-3.79791E-15-4.51060E-14
 -1         4 1.74903E+02 1.74903E+02 2.50170E+02 0.00000E+00-8.68858E-15 6.62884E-14
 -1         5 1.74903E+02 1.74903E+02 2.50170E+02 0.00000E+00 1.11460E-14-9.53016E-15
 -1         6 1.74903E+02 1.74903E+02 2.50170E+02 0.00000E+00-8.04854E-15 3.26226E-16
 -1         7 1.74903E+02 1.74903E+02 2.50170E+02 0.00000E+00 7.27220E-14 5.31819E-14
 -1         8 1.74903E+02 1.74903E+02 2.50170E+02 0.00000E+00-1.10457E-16-1.41699E-14
 -1         9 1.74919E+02 1.74919E+02 2.50193E+02 0.00000E+00-1.57615E-14-7.69991E-15
 -1        10 1.74919E+02 1.74919E+02 2.50193E+02 0.00000E+00 1.65747E-14 1.44989E-14
 -1        11 1.74919E+02 1.74919E+02 2.50193E+02 0.00000E+00 9.58181E-15 8.42140E-15
 -1        12 1.74919E+02 1.74919E+02 2.50193E+02 0.00000E+00 9.11055E-15 6.46516E-15
 -1        13 1.74919E+02 1.74919E+02 2.50193E+02 0.00000E+00-6.47719E-15-9.53638E-16
 -1        14 1.74919E+02 1.74919E+02 2.50193E+02 0.00000E+00 1.54364E-14 3.36507E-15
 -1        15 1.74919E+02 1.74919E+02 2.50193E+02 0.00000E+00-4.37911E-14 9.38130E-15
 -1        16 1.74919E+02 1.74919E+02 2.50193E+02 0.00000E+00 1.67535E-14 1.57312E-14
 -1        17 1.74919E+02 1.74919E+02 2.50193E+02 0.00000E+00-1.83177E-15 8.56229E-15
 -1        18 1.74919E+02 1.74919E+02 2.50193E+02 0.00000E+00 2.29383E-14-2.95496E-14
 -1        19 1.74919E+02 1.74919E+02 2.50193E+02 0.00000E+00 1.96864E-14-4.21935E-15
 -1        20 1.74919E+02 1.74919E+02 2.50193E+02 0.00000E+00 8.67311E-15 1.68215E-14
 -3
    1PSTEP                       448          90           1          
  100CL  190 142780.1604          20                     0   90           1
 -4  TOSTRAIN    6    1
 -5  EXX         1    4    1    1
 -5  EYY         1    4    2    2
 -5  EZZ         1    4    3    3
 -5  EXY         1    4    1    2
 -5  EYZ         1    4    2    3
 -5  EZX         1    4    3    1
 -1         1 0.00000E+00 0.00000E+00 1.99992E-03 0.00000E+00 4.12546E-19 7.19066E-19
 -1         2 0.00000E+00 0.00000E+00 1.99992E-03 0.00000E+00-6.48839E-19-8.08690E-19
 -1         3 0.00000E+00 0.00000E+00 1.99992E-03 0.00000E+00-1.00914E-19-1.19850E-18
 -1         4 0.00000E+00 0.00000E+00 1.99992E-03 0.00000E+00-2.30863E-19 1.76134E-18
 -1         5 0.00000E+00 0.00000E+00 1.99992E-03 0.00000E+00 2.96159E-19-2.53224E-19
 -1         6 0.00000E+00 0.00000E+00 1.99992E-03 0.00000E+00-2.13856E-19 8.66809E-21
 -1         7 0.00000E+00 0.00000E+00 1.99992E-03 0.00000E+00 1.93228E-18 1.41309E-18
 -1         8 0.00000E+00 0.00000E+00 1.99992E-03 0.00000E+00-2.93494E-21-3.76507E-19
 -1         9 0.00000E+00 0.00000E+00 2.00010E-03 0.00000E+00-4.18795E-19-2.04593E-19
 -1        10 0.00000E+00 0.00000E+00 2.00010E-03 0.00000E+00 4.40404E-19 3.85247E-19
 -1        11 0.00000E+00 0.00000E+00 2.00010E-03 0.00000E+00 2.54597E-19 2.23763E-19
 -1        12 0.00000E+00 0.00000E+00 2.00010E-03 0.00000E+00 2.42075E-19 1.71784E-19
 -1        13 0.00000E+00 0.00000E+00 2.00010E-03 0.00000E+00-1.72104E-19-2.53389E-20
 -1        14 0.00000E+00 0.00000E+00 2.00010E-03 0.00000E+00 4.10158E-19 8.94127E-20
 -1        15 0.00000E+00 0.00000E+00 2.00010E-03 0.00000E+00-1.16356E-18 2.49269E-19
 -1        16 0.00000E+00 0.00000E+00 2.00010E-03 0.00000E+00 4.45153E-19 4.17991E-19
 -1        17 0.00000E+00 0.00000E+00 2.00010E-03 0.00000E+00-4.86716E-20 2.27507E-19
 -1        18 0.00000E+00 0.00000E+00 2.00010E-03 0.00000E+00 6.09490E-19-7.85158E-19
 -1        19 0.00000E+00 0.00000E+00 2.00010E-03 0.00000E+00 5.23083E-19-1.12112E-19
 -1        20 0.00000E+00 0.00000E+00 2.00010E-03 0.00000E+00 2.30452E-19 4.46960E-19
 -3
    1PSTEP                       449          90           1          
  100CL  190 142780.1604          20                     0   90           1
 -4  FORC        4    1
 -5  F1          1    2    1    0
 -5  F2          1    2    2    0
 -5  F3          1    2    3    0
 -5  ALL         1    2    0    0    1ALL
 -1         1-1.45758E+01-1.45758E+01 2.08484E+01
 -1         2-1.45758E+01 1.45758E+01 2.08484E+01
 -1         3-1.45758E+01 1.45758E+01-2.08484E+01
 -1         4-1.45758E+01-1.45758E+01-2.08484E+01
 -1         5 1.45758E+01-1.45758E+01 2.08484E+01
 -1         6 1.45758E+01 1.45758E+01 2.08484E+01
 -1         7 1.45758E+01 1.45758E+01-2.08484E+01
 -1         8 1.45758E+01-1.45758E+01-2.08484E+01
 -1         9 5.83033E+01-1.04617E-14-8.33935E+01
 -1        10 5.83033E+01-5.83033E+01 5.55112E-15
 -1        11 5.83033E+01 5.13265E-15 8.33935E+01
 -1        12 5.83033E+01 5.83033E+01 1.72362E-14
 -1        13 5.17255E-15 5.83033E+01-8.33935E+01
 -1        14 1.74018E-14-5.83033E+01-8.33935E+01
 -1        15 5.46875E-15-5.83033E+01 8.33935E+01
 -1        16-6.48392E-16 5.83033E+01 8.33935E+01
 -1        17-5.83033E+01-2.20016E-15-8.33935E+01
 -1        18-5.83033E+01-5.83033E+01 3.55271E-15
 -1        19-5.83033E+01 3.75448E-15 8.33935E+01
 -1        20-5.83033E+01 5.83033E+01 4.88498E-15
 -3
    1PSTEP                       450          90           1          
  100CL  190 142780.1604          20                     0   90           1
 -4  ERROR       1    1
 -5  STR(%)      1    1    0    0
 -1         1 1.91759E-14
 -1         2 1.91759E-14
 -1         3 1.91759E-14
 -1         4 1.91759E-14
 -1         5 1.91759E-14
 -1         6 1.91759E-14
 -1         7 1.91759E-14
 -1         8 1.91759E-14
 -1         9 1.91759E-14
 -1        10 1.91759E-14
 -1        11 1.91759E-14
 -1        12 1.91759E-14
 -1        13 1.91759E-14
 -1        14 1.91759E-14
 -1        15 1.91759E-14
 -1        16 1.91759E-14
 -1        17 1.91759E-14
 -1        18 1.91759E-14
 -1        19 1.91759E-14
 -1        20 1.91759E-14
 -3
    1PSTEP                       451          91           1          
  100CL  191 144598.4569          20                     0   91           1
 -4  DISP        4    1
 -5  D1          1    2    1    0
 -5  D2          1    2    2    0
 -5  D3          1    2    3    0
 -5  ALL         1    2    0    0    1ALL
 -1         1 0.00000E+00 0.00000E+00 0.00000E+00
 -1         2 0.00000E+00 0.00000E+00 0.00000E+00
 -1         3 0.00000E+00 0.00000E+00 2.00000E-03
 -1         4 0.00000E+00 0.00000E+00 2.00000E-03
 -1         5 0.00000E+00 0.00000E+00 0.00000E+00
 -1         6 0.00000E+00 0.00000E+00 0.00000E+00
 -1         7 0.00000E+00 0.00000E+00 2.00000E-03
 -1         8 0.00000E+00 0.00000E+00 2.00000E-03
 -1         9 0.00000E+00 0.00000E+00 0.00000E+00
 -1        10 0.00000E+00 0.00000E+00 1.00000E-03
 -1        11 0.00000E+00 0.00000E+00 2.00000E-03
 -1        12 0.00000E+00 0.00000E+00 1.00000E-03
 -1        13 0.00000E+00 0.00000E+00 0.00000E+00
 -1        14 0.00000E+00 0.00000E+00 0.00000E+00
 -1        15 0.00000E+00 0.00000E+00 2.00000E-03
 -1        16 0.00000E+00 0.00000E+00 2.00000E-03
 -1        17 0.00000E+00 0.00000E+00 0.00000E+00
 -1        18 0.00000E+00 0.00000E+00 1.00000E-03
 -1        19 0.00000E+00 0.00000E+00 2.00000E-03
 -1        20 0.00000E+00 0.00000E+00 1.00000E-03
 -3
    1PSTEP                       452          91           1          
  100CL  191 144598.4569          20                     0   91           1
 -4  STRESS      6    1
 -5  SXX         1    4    1    1
 -5  SYY         1    4    2    2
 -5  SZZ         1    4    3    3
 -5  SXY         1    4    1    2
 -5  SYZ         1    4    2    3
 -5  SZX         1    4    3    1
 -1         1 1.75085E+02 1.75085E+02 2.49806E+02 0.00000E+00 1.54136E-14 2.68659E-14
 -1         2 1.75085E+02 1.75085E+02 2.49806E+02 0.00000E+00-2.42421E-14-3.02144E-14
 -1         3 1.75085E+02 1.75085E+02 2.49806E+02 0.00000E+00-3.77036E-15-4.47787E-14
 -1         4 1.75085E+02 1.75085E+02 2.49806E+02 0.00000E+00-8.62554E-15 6.58075E-14
 -1         5 1.75085E+02 1.75085E+02 2.49806E+02 0.00000E+00 1.10651E-14-9.46102E-15
 -1         6 1.75085E+02 1.75085E+02 2.49806E+02 0.00000E+00-7.99014E-15 3.23859E-16
 -1         7 1.75085E+02 1.75085E+02 2.49806E+02 0.00000E+00 7.21944E-14 5.27960E-14
 -1         8 1.75085E+02 1.75085E+02 2.49806E+02 0.00000E+00-1.09656E-16-1.40671E-14
 -1         9 1.75101E+02 1.75101E+02 2.49829E+02 0.00000E+00-1.56471E-14-7.64405E-15
 -1        10 1.75101E+02 1.75101E+02 2.49829E+02 0.00000E+00 1.64545E-14 1.43937E-14
 -1        11 1.75101E+02 1.75101E+02 2.49829E+02 0.00000E+00 9.51229E-15 8.36029E-15
 -1        12 1.75101E+02 1.75101E+02 2.49829E+02 0.00000E+00 9.04445E-15 6.41825E-15
 -1        13 1.75101E+02 1.75101E+02 2.49829E+02 0.00000E+00-6.43019E-15-9.46719E-16
 -1        14 1.75101E+02 1.75101E+02 2.49829E+02 0.00000E+00 1.53244E-14 3.34066E-15
 -1        15 1.75101E+02 1.75101E+02 2.49829E+02 0.00000E+00-4.34734E-14 9.31324E-15
 -1        16 1.75101E+02 1.75101E+02 2.49829E+02 0.00000E+00 1.66319E-14 1.56171E-14
 -1        17 1.75101E+02 1.75101E+02 2.49829E+02 0.00000E+00-1.81848E-15 8.50017E-15
 -1        18 1.75101E+02 1.75101E+02 2.49829E+02 0.00000E+00 2.27719E-14-2.93353E-14
 -1        19 1.75101E+02 1.75101E+02 2.49829E+02 0.00000E+00 1.95435E-14-4.18874E-15
 -1        20 1.75101E+02 1.75101E+02 2.49829E+02 0.00000E+00 8.61018E-15 1.66994E-14
 -3
    1PSTEP                       453          91           1          
  100CL  191 144598.4569          20                     0   91           1
 -4  TOSTRAIN    6    1
 -5  EXX         1    4    1    1
 -5  EYY         1    4    2    2
 -5  EZZ         1    4    3    3
 -5  EXY         1    4    1    2
 -5  EYZ         1    4    2    3
 -5  EZX         1    4    3    1
 -1         1 0.00000E+00 0.00000E+00 1.99992E-03 0.00000E+00 4.12546E-19 7.19066E-19
 -1         2 0.00000E+00 0.00000E+00 1.99992E-03 0.00000E+00-6.48839E-19-8.08690E-19
 -1         3 0.00000E+00 0.00000E+00 1.99992E-03 0.00000E+00-1.00914E-19-1.19850E-18
 -1         4 0.00000E+00 0.00000E+00 1.99992E-03 0.00000E+00-2.30863E-19 1.76134E-18
 -1         5 0.00000E+00 0.00000E+00 1.99992E-03 0.00000E+00 2.96159E-19-2.53224E-19
 -1         6 0.00000E+00 0.00000E+00 1.99992E-03 0.00000E+00-2.13856E-19 8.66809E-21
 -1         7 0.00000E+00 0.00000E+00 1.99992E-03 0.00000E+00 1.93228E-18 1.41309E-18
 -1         8 0.00000E+00 0.00000E+00 1.99992E-03 0.00000E+00-2.93494E-21-3.76507E-19
 -1         9 0.00000E+00 0.00000E+00 2.00010E-03 0.00000E+00-4.18795E-19-2.04593E-19
 -1        10 0.00000E+00 0.00000E+00 2.00010E-03 0.00000E+00 4.40404E-19 3.85247E-19
 -1        11 0.00000E+00 0.00000E+00 2.00010E-03 0.00000E+00 2.54597E-19 2.23763E-19
 -1        12 0.00000E+00 0.00000E+00 2.00010E-03 0.00000E+00 2.42075E-19 1.71784E-19
 -1        13 0.00000E+00 0.00000E+00 2.00010E-03 0.00000E+00-1.72104E-19-2.53389E-20
 -1        14 0.00000E+00 0.00000E+00 2.00010E-03 0.00000E+00 4.10158E-19 8.94127E-20
 -1        15 0.00000E+00 0.00000E+00 2.00010E-03 0.00000E+00-1.16356E-18 2.49269E-19
 -1        16 0.00000E+00 0.00000E+00 2.00010E-03 0.00000E+00 4.45153E-19 4.17991E-19
 -1        17 0.00000E+00 0.00000E+00 2.00010E-03 0.00000E+00-4.86716E-20 2.27507E-19
 -1        18 0.00000E+00 0.00000E+00 2.00010E-03 0.00000E+00 6.09490E-19-7.85158E-19
 -1        19 0.00000E+00 0.00000E+00 2.00010E-03 0.00000E+00 5.23083E-19-1.12112E-19
 -1        20 0.00000E+00 0.00000E+00 2.00010E-03 0.00000E+00 2.30452E-19 4.46960E-19
 -3
    1PSTEP                       454          91           1          
  100CL  191 144598.4569          20                     0   91           1
 -4  FORC        4    1
 -5  F1          1    2    1    0
 -5  F2          1    2    2    0
 -5  F3          1    2    3    0
 -5  ALL         1    2    0    0    1ALL
 -1         1-1.45910E+01-1.45910E+01 2.08180E+01
 -1         2-1.45910E+01 1.45910E+01 2.08180E+01
 -1         3-1.45910E+01 1.45910E+01-2.08180E+01
 -1         4-1.45910E+01-1.45910E+01-2.08180E+01
 -1         5 1.45910E+01-1.45910E+01 2.08180E+01
 -1         6 1.45910E+01 1.45910E+01 2.08180E+01
 -1         7 1.45910E+01 1.45910E+01-2.08180E+01
 -1         8 1.45910E+01-1.45910E+01-2.08180E+01
 -1         9 5.83640E+01-1.02672E-14-8.32721E+01
 -1        10 5.83640E+01-5.83640E+01 5.55112E-15
 -1        11 5.83640E+01 7.35291E-15 8.32721E+01
 -1        12 5.83640E+01 5.83640E+01 1.68476E-14
 -1        13-1.21468E-14 5.83640E+01-8.32721E+01
 -1        14 9.63129E-15-5.83640E+01-8.32721E+01
 -1        15-6.96676E-15-5.83640E+01 8.32721E+01
 -1        16-1.53670E-15 5.83640E+01 8.32721E+01
 -1        17-5.83640E+01-3.97506E-15-8.32721E+01
 -1        18-5.83640E+01-5.83640E+01 7.10543E-15
 -1        19-5.83640E+01 2.00299E-16 8.32721E+01
 -1        20-5.83640E+01 5.83640E+01 3.55271E-15
 -3
    1PSTEP                       455          91           1          
  100CL  191 144598.4569          20                     0   91           1
 -4  ERROR       1    1
 -5  STR(%)      1    1    0    0
 -1         1 1.51303E-14
 -1         2 1.51303E-14
 -1         3 1.51303E-14
 -1         4 1.51303E-14
 -1         5 1.51303E-14
 -1         6 1.51303E-14
 -1         7 1.51303E-14
 -1         8 1.51303E-14
 -1         9 1.51303E-14
 -1        10 1.51303E-14
 -1        11 1.51303E-14
 -1        12 1.51303E-14
 -1        13 1.51303E-14
 -1        14 1.51303E-14
 -1        15 1.51303E-14
 -1        16 1.51303E-14
 -1        17 1.51303E-14
 -1        18 1.51303E-14
 -1        19 1.51303E-14
 -1        20 1.51303E-14
 -3
    1PSTEP                       456          92           1          
  100CL  192 147325.9017          20                     0   92           1
 -4  DISP        4    1
 -5  D1          1    2    1    0
 -5  D2          1    2    2    0
 -5  D3          1    2    3    0
 -5  ALL         1    2    0    0    1ALL
 -1         1 0.00000E+00 0.00000E+00 0.00000E+00
 -1         2 0.00000E+00 0.00000E+00 0.00000E+00
 -1         3 0.00000E+00 0.00000E+00 2.00000E-03
 -1         4 0.00000E+00 0.00000E+00 2.00000E-03
 -1         5 0.00000E+00 0.00000E+00 0.00000E+00
 -1         6 0.00000E+00 0.00000E+00 0.00000E+00
 -1         7 0.00000E+00 0.00000E+00 2.00000E-03
 -1         8 0.00000E+00 0.00000E+00 2.00000E-03
 -1         9 0.00000E+00 0.00000E+00 0.00000E+00
 -1        10 0.00000E+00 0.00000E+00 1.00000E-03
 -1        11 0.00000E+00 0.00000E+00 2.00000E-03
 -1        12 0.00000E+00 0.00000E+00 1.00000E-03
 -1        13 0.00000E+00 0.00000E+00 0.00000E+00
 -1        14 0.00000E+00 0.00000E+00 0.00000E+00
 -1        15 0.00000E+00 0.00000E+00 2.00000E-03
 -1        16 0.00000E+00 0.00000E+00 2.00000E-03
 -1        17 0.00000E+00 0.00000E+00 0.00000E+00
 -1        18 0.00000E+00 0.00000E+00 1.00000E-03
 -1        19 0.00000E+00 0.00000E+00 2.00000E-03
 -1        20 0.00000E+00 0.00000E+00 1.00000E-03
 -3
    1PSTEP                       457          92           1          
  100CL  192 147325.9017          20                     0   92           1
 -4  STRESS      6    1
 -5  SXX         1    4    1    1
 -5  SYY         1    4    2    2
 -5  SZZ         1    4    3    3
 -5  SXY         1    4    1    2
 -5  SYZ         1    4    2    3
 -5  SZX         1    4    3    1
 -1         1 1.75355E+02 1.75355E+02 2.49266E+02 0.00000E+00 1.52465E-14 2.65746E-14
 -1         2 1.75355E+02 1.75355E+02 2.49266E+02 0.00000E+00-2.39792E-14-2.98868E-14
 -1         3 1.75355E+02 1.75355E+02 2.49266E+02 0.00000E+00-3.72947E-15-4.42931E-14
 -1         4 1.75355E+02 1.75355E+02 2.49266E+02 0.00000E+00-8.53201E-15 6.50939E-14
 -1         5 1.75355E+02 1.75355E+02 2.49266E+02 0.00000E+00 1.09452E-14-9.35842E-15
 -1         6 1.75355E+02 1.75355E+02 2.49266E+02 0.00000E+00-7.90350E-15 3.20347E-16
 -1         7 1.75355E+02 1.75355E+02 2.49266E+02 0.00000E+00 7.14115E-14 5.22235E-14
 -1         8 1.75355E+02 1.75355E+02 2.49266E+02 0.00000E+00-1.08467E-16-1.39146E-14
 -1         9 1.75371E+02 1.75371E+02 2.49289E+02 0.00000E+00-1.54774E-14-7.56115E-15
 -1        10 1.75371E+02 1.75371E+02 2.49289E+02 0.00000E+00 1.62761E-14 1.42376E-14
 -1        11 1.75371E+02 1.75371E+02 2.49289E+02 0.00000E+00 9.40914E-15 8.26964E-15
 -1        12 1.75371E+02 1.75371E+02 2.49289E+02 0.00000E+00 8.94637E-15 6.34865E-15
 -1        13 1.75371E+02 1.75371E+02 2.49289E+02 0.00000E+00-6.36047E-15-9.36453E-16
 -1        14 1.75371E+02 1.75371E+02 2.49289E+02 0.00000E+00 1.51583E-14 3.30443E-15
 -1        15 1.75371E+02 1.75371E+02 2.49289E+02 0.00000E+00-4.30019E-14 9.21225E-15
 -1        16 1.75371E+02 1.75371E+02 2.49289E+02 0.00000E+00 1.64516E-14 1.54477E-14
 -1        17 1.75371E+02 1.75371E+02 2.49289E+02 0.00000E+00-1.79876E-15 8.40799E-15
 -1        18 1.75371E+02 1.75371E+02 2.49289E+02 0.00000E+00 2.25250E-14-2.90171E-14
 -1        19 1.75371E+02 1.75371E+02 2.49289E+02 0.00000E+00 1.93316E-14-4.14332E-15
 -1        20 1.75371E+02 1.75371E+02 2.49289E+02 0.00000E+00 8.51681E-15 1.65183E-14
 -3
    1PSTEP                       458          92           1          
  100CL  192 147325.9017          20                     0   92           1
 -4  TOSTRAIN    6    1
 -5  EXX         1    4    1    1
 -5  EYY         1    4    2    2
 -5  EZZ         1    4    3    3
 -5  EXY         1    4    1    2
 -5  EYZ         1    4    2    3
 -5  EZX         1    4    3    1
 -1         1 0.00000E+00 0.00000E+00 1.99992E-03 0.00000E+00 4.12546E-19 7.19066E-19
 -1         2 0.00000E+00 0.00000E+00 1.99992E-03 0.00000E+00-6.48839E-19-8.08690E-19
 -1         3 0.00000E+00 0.00000E+00 1.99992E-03 0.00000E+00-1.00914E-19-1.19850E-18
 -1         4 0.00000E+00 0.00000E+00 1.99992E-03 0.00000E+00-2.30863E-19 1.76134E-18
 -1         5 0.00000E+00 0.00000E+00 1.99992E-03 0.00000E+00 2.96159E-19-2.53224E-19
 -1         6 0.00000E+00 0.00000E+00 1.99992E-03 0.00000E+00-2.13856E-19 8.66809E-21
 -1         7 0.00000E+00 0.00000E+00 1.99992E-03 0.00000E+00 1.93228E-18 1.41309E-18
 -1         8 0.00000E+00 0.00000E+00 1.99992E-03 0.00000E+00-2.93494E-21-3.76507E-19
 -1         9 0.00000E+00 0.00000E+00 2.00010E-03 0.00000E+00-4.18795E-19-2.04593E-19
 -1        10 0.00000E+00 0.00000E+00 2.00010E-03 0.00000E+00 4.40404E-19 3.85247E-19
 -1        11 0.00000E+00 0.00000E+00 2.00010E-03 0.00000E+00 2.54597E-19 2.23763E-19
 -1        12 0.00000E+00 0.00000E+00 2.00010E-03 0.00000E+00 2.42075E-19 1.71784E-19
 -1        13 0.00000E+00 0.00000E+00 2.00010E-03 0.00000E+00-1.72104E-19-2.53389E-20
 -1        14 0.00000E+00 0.00000E+00 2.00010E-03 0.00000E+00 4.10158E-19 8.94127E-20
 -1        15 0.00000E+00 0.00000E+00 2.00010E-03 0.00000E+00-1.16356E-18 2.49269E-19
 -1        16 0.00000E+00 0.00000E+00 2.00010E-03 0.00000E+00 4.45153E-19 4.17991E-19
 -1        17 0.00000E+00 0.00000E+00 2.00010E-03 0.00000E+00-4.86716E-20 2.27507E-19
 -1        18 0.00000E+00 0.00000E+00 2.00010E-03 0.00000E+00 6.09490E-19-7.85158E-19
 -1        19 0.00000E+00 0.00000E+00 2.00010E-03 0.00000E+00 5.23083E-19-1.12112E-19
 -1        20 0.00000E+00 0.00000E+00 2.00010E-03 0.00000E+00 2.30452E-19 4.46960E-19
 -3
    1PSTEP                       459          92           1          
  100CL  192 147325.9017          20                     0   92           1
 -4  FORC        4    1
 -5  F1          1    2    1    0
 -5  F2          1    2    2    0
 -5  F3          1    2    3    0
 -5  ALL         1    2    0    0    1ALL
 -1         1-1.46135E+01-1.46135E+01 2.07730E+01
 -1         2-1.46135E+01 1.46135E+01 2.07730E+01
 -1         3-1.46135E+01 1.46135E+01-2.07730E+01
 -1         4-1.46135E+01-1.46135E+01-2.07730E+01
 -1         5 1.46135E+01-1.46135E+01 2.07730E+01
 -1         6 1.46135E+01 1.46135E+01 2.07730E+01
 -1         7 1.46135E+01 1.46135E+01-2.07730E+01
 -1         8 1.46135E+01-1.46135E+01-2.07730E+01
 -1         9 5.84540E+01-4.91015E-15-8.30920E+01
 -1        10 5.84540E+01-5.84540E+01 1.99840E-15
 -1        11 5.84540E+01 3.57788E-15 8.30920E+01
 -1        12 5.84540E+01 5.84540E+01 1.65423E-14
 -1        13-9.28778E-15 5.84540E+01-8.30920E+01
 -1        14 1.74044E-14-5.84540E+01-8.30920E+01
 -1        15 5.46624E-15-5.84540E+01 8.30920E+01
 -1        16 3.57014E-15 5.84540E+01 8.30920E+01
 -1        17-5.84540E+01-4.20171E-16-8.30920E+01
 -1        18-5.84540E+01-5.84540E+01-1.77636E-15
 -1        19-5.84540E+01 1.97448E-15 8.30920E+01
 -1        20-5.84540E+01 5.84540E+01 8.88178E-16
 -3
    1PSTEP                       460          92           1          
  100CL  192 147325.9017          20                     0   92           1
 -4  ERROR       1    1
 -5  STR(%)      1    1    0    0
 -1         1 2.68271E-14
 -1         2 2.68271E-14
 -1         3 2.68271E-14
 -1         4 2.68271E-14
 -1         5 2.68271E-14
 -1         6 2.68271E-14
 -1         7 2.68271E-14
 -1         8 2.68271E-14
 -1         9 2.68271E-14
 -1        10 2.68271E-14
 -1        11 2.68271E-14
 -1        12 2.68271E-14
 -1        13 2.68271E-14
 -1        14 2.68271E-14
 -1        15 2.68271E-14
 -1        16 2.68271E-14
 -1        17 2.68271E-14
 -1        18 2.68271E-14
 -1        19 2.68271E-14
 -1        20 2.68271E-14
 -3
    1PSTEP                       461          93           1          
  100CL  193 149094.4022          20                     0   93           1
 -4  DISP        4    1
 -5  D1          1    2    1    0
 -5  D2          1    2    2    0
 -5  D3          1    2    3    0
 -5  ALL         1    2    0    0    1ALL
 -1         1 0.00000E+00 0.00000E+00 0.00000E+00
 -1         2 0.00000E+00 0.00000E+00 0.00000E+00
 -1         3 0.00000E+00 0.00000E+00 2.00000E-03
 -1         4 0.00000E+00 0.00000E+00 2.00000E-03
 -1         5 0.00000E+00 0.00000E+00 0.00000E+00
 -1         6 0.00000E+00 0.00000E+00 0.00000E+00
 -1         7 0.00000E+00 0.00000E+00 2.00000E-03
 -1         8 0.00000E+00 0.00000E+00 2.00000E-03
 -1         9 0.00000E+00 0.00000E+00 0.00000E+00
 -1        10 0.00000E+00 0.00000E+00 1.00000E-03
 -1        11 0.00000E+00 0.00000E+00 2.00000E-03
 -1        12 0.00000E+00 0.00000E+00 1.00000E-03
 -1        13 0.00000E+00 0.00000E+00 0.00000E+00
 -1        14 0.00000E+00 0.00000E+00 0.00000E+00
 -1        15 0.00000E+00 0.00000E+00 2.00000E-03
 -1        16 0.00000E+00 0.00000E+00 2.00000E-03
 -1        17 0.00000E+00 0.00000E+00 0.00000E+00
 -1        18 0.00000E+00 0.00000E+00 1.00000E-03
 -1        19 0.00000E+00 0.00000E+00 2.00000E-03
 -1        20 0.00000E+00 0.00000E+00 1.00000E-03
 -3
    1PSTEP                       462          93           1          
  100CL  193 149094.4022          20                     0   93           1
 -4  STRESS      6    1
 -5  SXX         1    4    1    1
 -5  SYY         1    4    2    2
 -5  SZZ         1    4    3    3
 -5  SXY         1    4    1    2
 -5  SYZ         1    4    2    3
 -5  SZX         1    4    3    1
 -1         1 1.75529E+02 1.75529E+02 2.48918E+02 0.00000E+00 1.51389E-14 2.63870E-14
 -1         2 1.75529E+02 1.75529E+02 2.48918E+02 0.00000E+00-2.38099E-14-2.96759E-14
 -1         3 1.75529E+02 1.75529E+02 2.48918E+02 0.00000E+00-3.70315E-15-4.39805E-14
 -1         4 1.75529E+02 1.75529E+02 2.48918E+02 0.00000E+00-8.47179E-15 6.46344E-14
 -1         5 1.75529E+02 1.75529E+02 2.48918E+02 0.00000E+00 1.08679E-14-9.29237E-15
 -1         6 1.75529E+02 1.75529E+02 2.48918E+02 0.00000E+00-7.84772E-15 3.18086E-16
 -1         7 1.75529E+02 1.75529E+02 2.48918E+02 0.00000E+00 7.09075E-14 5.18549E-14
 -1         8 1.75529E+02 1.75529E+02 2.48918E+02 0.00000E+00-1.07701E-16-1.38164E-14
 -1         9 1.75545E+02 1.75545E+02 2.48941E+02 0.00000E+00-1.53682E-14-7.50779E-15
 -1        10 1.75545E+02 1.75545E+02 2.48941E+02 0.00000E+00 1.61612E-14 1.41371E-14
 -1        11 1.75545E+02 1.75545E+02 2.48941E+02 0.00000E+00 9.34273E-15 8.21127E-15
 -1        12 1.75545E+02 1.75545E+02 2.48941E+02 0.00000E+00 8.88322E-15 6.30384E-15
 -1        13 1.75545E+02 1.75545E+02 2.48941E+02 0.00000E+00-6.31557E-15-9.29844E-16
 -1        14 1.75545E+02 1.75545E+02 2.48941E+02 0.00000E+00 1.50513E-14 3.28111E-15
 -1        15 1.75545E+02 1.75545E+02 2.48941E+02 0.00000E+00-4.26984E-14 9.14723E-15
 -1        16 1.75545E+02 1.75545E+02 2.48941E+02 0.00000E+00 1.63354E-14 1.53387E-14
 -1        17 1.75545E+02 1.75545E+02 2.48941E+02 0.00000E+00-1.78606E-15 8.34865E-15
 -1        18 1.75545E+02 1.75545E+02 2.48941E+02 0.00000E+00 2.23660E-14-2.88123E-14
 -1        19 1.75545E+02 1.75545E+02 2.48941E+02 0.00000E+00 1.91952E-14-4.11407E-15
 -1        20 1.75545E+02 1.75545E+02 2.48941E+02 0.00000E+00 8.45670E-15 1.64017E-14
 -3
    1PSTEP                       463          93           1          
  100CL  193 149094.4022          20                     0   93           1
 -4  TOSTRAIN    6    1
 -5  EXX         1    4    1    1
 -5  EYY         1    4    2    2
 -5  EZZ         1    4    3    3
 -5  EXY         1    4    1    2
 -5  EYZ         1    4    2    3
 -5  EZX         1    4    3    1
 -1         1 0.00000E+00 0.00000E+00 1.99992E-03 0.00000E+00 4.12546E-19 7.19066E-19
 -1         2 0.00000E+00 0.00000E+00 1.99992E-03 0.00000E+00-6.48839E-19-8.08690E-19
 -1         3 0.00000E+00 0.00000E+00 1.99992E-03 0.00000E+00-1.00914E-19-1.19850E-18
 -1         4 0.00000E+00 0.00000E+00 1.99992E-03 0.00000E+00-2.30863E-19 1.76134E-18
 -1         5 0.00000E+00 0.00000E+00 1.99992E-03 0.00000E+00 2.96159E-19-2.53224E-19
 -1         6 0.00000E+00 0.00000E+00 1.99992E-03 0.00000E+00-2.13856E-19 8.66809E-21
 -1         7 0.00000E+00 0.00000E+00 1.99992E-03 0.00000E+00 1.93228E-18 1.41309E-18
 -1         8 0.00000E+00 0.00000E+00 1.99992E-03 0.00000E+00-2.93494E-21-3.76507E-19
 -1         9 0.00000E+00 0.00000E+00 2.00010E-03 0.00000E+00-4.18795E-19-2.04593E-19
 -1        10 0.00000E+00 0.00000E+00 2.00010E-03 0.00000E+00 4.40404E-19 3.85247E-19
 -1        11 0.00000E+00 0.00000E+00 2.00010E-03 0.00000E+00 2.54597E-19 2.23763E-19
 -1        12 0.00000E+00 0.00000E+00 2.00010E-03 0.00000E+00 2.42075E-19 1.71784E-19
 -1        13 0.00000E+00 0.00000E+00 2.00010E-03 0.00000E+00-1.72104E-19-2.53389E-20
 -1        14 0.00000E+00 0.00000E+00 2.00010E-03 0.00000E+00 4.10158E-19 8.94127E-20
 -1        15 0.00000E+00 0.00000E+00 2.00010E-03 0.00000E+00-1.16356E-18 2.49269E-19
 -1        16 0.00000E+00 0.00000E+00 2.00010E-03 0.00000E+00 4.45153E-19 4.17991E-19
 -1        17 0.00000E+00 0.00000E+00 2.00010E-03 0.00000E+00-4.86716E-20 2.27507E-19
 -1        18 0.00000E+00 0.00000E+00 2.00010E-03 0.00000E+00 6.09490E-19-7.85158E-19
 -1        19 0.00000E+00 0.00000E+00 2.00010E-03 0.00000E+00 5.23083E-19-1.12112E-19
 -1        20 0.00000E+00 0.00000E+00 2.00010E-03 0.00000E+00 2.30452E-19 4.46960E-19
 -3
    1PSTEP                       464          93           1          
  100CL  193 149094.4022          20                     0   93           1
 -4  FORC        4    1
 -5  F1          1    2    1    0
 -5  F2          1    2    2    0
 -5  F3          1    2    3    0
 -5  ALL         1    2    0    0    1ALL
 -1         1-1.46280E+01-1.46280E+01 2.07440E+01
 -1         2-1.46280E+01 1.46280E+01 2.07440E+01
 -1         3-1.46280E+01 1.46280E+01-2.07440E+01
 -1         4-1.46280E+01-1.46280E+01-2.07440E+01
 -1         5 1.46280E+01-1.46280E+01 2.07440E+01
 -1         6 1.46280E+01 1.46280E+01 2.07440E+01
 -1         7 1.46280E+01 1.46280E+01-2.07440E+01
 -1         8 1.46280E+01-1.46280E+01-2.07440E+01
 -1         9 5.85120E+01-5.54835E-15-8.29761E+01
 -1        10 5.85120E+01-5.85120E+01 1.55431E-15
 -1        11 5.85120E+01 3.57770E-15 8.29761E+01
 -1        12 5.85120E+01 5.85120E+01 1.94567E-14
 -1        13 1.06517E-15 5.85120E+01-8.29761E+01
 -1        14 1.56290E-14-5.85120E+01-8.29761E+01
 -1        15-3.41652E-15-5.85120E+01 8.29761E+01
 -1        16 2.01570E-15 5.85120E+01 8.29761E+01
 -1        17-5.85120E+01-4.18773E-16-8.29761E+01
 -1        18-5.85120E+01-5.85120E+01 1.77636E-15
 -1        19-5.85120E+01 1.96728E-16 8.29761E+01
 -1        20-5.85120E+01 5.85120E+01 2.66454E-15
 -3
    1PSTEP                       465          93           1          
  100CL  193 149094.4022          20                     0   93           1
 -4  ERROR       1    1
 -5  STR(%)      1    1    0    0
 -1         1 2.21924E-14
 -1         2 2.21924E-14
 -1         3 2.21924E-14
 -1         4 2.21924E-14
 -1         5 2.21924E-14
 -1         6 2.21924E-14
 -1         7 2.21924E-14
 -1         8 2.21924E-14
 -1         9 2.21924E-14
 -1        10 2.21924E-14
 -1        11 2.21924E-14
 -1        12 2.21924E-14
 -1        13 2.21924E-14
 -1        14 2.21924E-14
 -1        15 2.21924E-14
 -1        16 2.21924E-14
 -1        17 2.21924E-14
 -1        18 2.21924E-14
 -1        19 2.21924E-14
 -1        20 2.21924E-14
 -3
    1PSTEP                       466          94           1          
  100CL  194 150862.9027          20                     0   94           1
 -4  DISP        4    1
 -5  D1          1    2    1    0
 -5  D2          1    2    2    0
 -5  D3          1    2    3    0
 -5  ALL         1    2    0    0    1ALL
 -1         1 0.00000E+00 0.00000E+00 0.00000E+00
 -1         2 0.00000E+00 0.00000E+00 0.00000E+00
 -1         3 0.00000E+00 0.00000E+00 2.00000E-03
 -1         4 0.00000E+00 0.00000E+00 2.00000E-03
 -1         5 0.00000E+00 0.00000E+00 0.00000E+00
 -1         6 0.00000E+00 0.00000E+00 0.00000E+00
 -1         7 0.00000E+00 0.00000E+00 2.00000E-03
 -1         8 0.00000E+00 0.00000E+00 2.00000E-03
 -1         9 0.00000E+00 0.00000E+00 0.00000E+00
 -1        10 0.00000E+00 0.00000E+00 1.00000E-03
 -1        11 0.00000E+00 0.00000E+00 2.00000E-03
 -1        12 0.00000E+00 0.00000E+00 1.00000E-03
 -1        13 0.00000E+00 0.00000E+00 0.00000E+00
 -1        14 0.00000E+00 0.00000E+00 0.00000E+00
 -1        15 0.00000E+00 0.00000E+00 2.00000E-03
 -1        16 0.00000E+00 0.00000E+00 2.00000E-03
 -1        17 0.00000E+00 0.00000E+00 0.00000E+00
 -1        18 0.00000E+00 0.00000E+00 1.00000E-03
 -1        19 0.00000E+00 0.00000E+00 2.00000E-03
 -1        20 0.00000E+00 0.00000E+00 1.00000E-03
 -3
    1PSTEP                       467          94           1          
  100CL  194 150862.9027          20                     0   94           1
 -4  STRESS      6    1
 -5  SXX         1    4    1    1
 -5  SYY         1    4    2    2
 -5  SZZ         1    4    3    3
 -5  SXY         1    4    1    2
 -5  SYZ         1    4    2    3
 -5  SZX         1    4    3    1
 -1         1 1.75701E+02 1.75701E+02 2.48573E+02 0.00000E+00 1.50320E-14 2.62008E-14
 -1         2 1.75701E+02 1.75701E+02 2.48573E+02 0.00000E+00-2.36419E-14-2.94664E-14
 -1         3 1.75701E+02 1.75701E+02 2.48573E+02 0.00000E+00-3.67701E-15-4.36701E-14
 -1         4 1.75701E+02 1.75701E+02 2.48573E+02 0.00000E+00-8.41200E-15 6.41782E-14
 -1         5 1.75701E+02 1.75701E+02 2.48573E+02 0.00000E+00 1.07912E-14-9.22678E-15
 -1         6 1.75701E+02 1.75701E+02 2.48573E+02 0.00000E+00-7.79233E-15 3.15841E-16
 -1         7 1.75701E+02 1.75701E+02 2.48573E+02 0.00000E+00 7.04070E-14 5.14889E-14
 -1         8 1.75701E+02 1.75701E+02 2.48573E+02 0.00000E+00-1.06941E-16-1.37189E-14
 -1         9 1.75717E+02 1.75717E+02 2.48595E+02 0.00000E+00-1.52597E-14-7.45480E-15
 -1        10 1.75717E+02 1.75717E+02 2.48595E+02 0.00000E+00 1.60471E-14 1.40373E-14
 -1        11 1.75717E+02 1.75717E+02 2.48595E+02 0.00000E+00 9.27679E-15 8.15331E-15
 -1        12 1.75717E+02 1.75717E+02 2.48595E+02 0.00000E+00 8.82053E-15 6.25935E-15
 -1        13 1.75717E+02 1.75717E+02 2.48595E+02 0.00000E+00-6.27100E-15-9.23281E-16
 -1        14 1.75717E+02 1.75717E+02 2.48595E+02 0.00000E+00 1.49450E-14 3.25795E-15
 -1        15 1.75717E+02 1.75717E+02 2.48595E+02 0.00000E+00-4.23971E-14 9.08266E-15
 -1        16 1.75717E+02 1.75717E+02 2.48595E+02 0.00000E+00 1.62201E-14 1.52304E-14
 -1        17 1.75717E+02 1.75717E+02 2.48595E+02 0.00000E+00-1.77346E-15 8.28972E-15
 -1        18 1.75717E+02 1.75717E+02 2.48595E+02 0.00000E+00 2.22081E-14-2.86090E-14
 -1        19 1.75717E+02 1.75717E+02 2.48595E+02 0.00000E+00 1.90597E-14-4.08504E-15
 -1        20 1.75717E+02 1.75717E+02 2.48595E+02 0.00000E+00 8.39701E-15 1.62860E-14
 -3
    1PSTEP                       468          94           1          
  100CL  194 150862.9027          20                     0   94           1
 -4  TOSTRAIN    6    1
 -5  EXX         1    4    1    1
 -5  EYY         1    4    2    2
 -5  EZZ         1    4    3    3
 -5  EXY         1    4    1    2
 -5  EYZ         1    4    2    3
 -5  EZX         1    4    3    1
 -1         1 0.00000E+00 0.00000E+00 1.99992E-03 0.00000E+00 4.12546E-19 7.19066E-19
 -1         2 0.00000E+00 0.00000E+00 1.99992E-03 0.00000E+00-6.48839E-19-8.08690E-19
 -1         3 0.00000E+00 0.00000E+00 1.99992E-03 0.00000E+00-1.00914E-19-1.19850E-18
 -1         4 0.00000E+00 0.00000E+00 1.99992E-03 0.00000E+00-2.30863E-19 1.76134E-18
 -1         5 0.00000E+00 0.00000E+00 1.99992E-03 0.00000E+00 2.96159E-19-2.53224E-19
 -1         6 0.00000E+00 0.00000E+00 1.99992E-03 0.00000E+00-2.13856E-19 8.66809E-21
 -1         7 0.00000E+00 0.00000E+00 1.99992E-03 0.00000E+00 1.93228E-18 1.41309E-18
 -1         8 0.00000E+00 0.00000E+00 1.99992E-03 0.00000E+00-2.93494E-21-3.76507E-19
 -1         9 0.00000E+00 0.00000E+00 2.00010E-03 0.00000E+00-4.18795E-19-2.04593E-19
 -1        10 0.00000E+00 0.00000E+00 2.00010E-03 0.00000E+00 4.40404E-19 3.85247E-19
 -1        11 0.00000E+00 0.00000E+00 2.00010E-03 0.00000E+00 2.54597E-19 2.23763E-19
 -1        12 0.00000E+00 0.00000E+00 2.00010E-03 0.00000E+00 2.42075E-19 1.71784E-19
 -1        13 0.00000E+00 0.00000E+00 2.00010E-03 0.00000E+00-1.72104E-19-2.53389E-20
 -1        14 0.00000E+00 0.00000E+00 2.00010E-03 0.00000E+00 4.10158E-19 8.94127E-20
 -1        15 0.00000E+00 0.00000E+00 2.00010E-03 0.00000E+00-1.16356E-18 2.49269E-19
 -1        16 0.00000E+00 0.00000E+00 2.00010E-03 0.00000E+00 4.45153E-19 4.17991E-19
 -1        17 0.00000E+00 0.00000E+00 2.00010E-03 0.00000E+00-4.86716E-20 2.27507E-19
 -1        18 0.00000E+00 0.00000E+00 2.00010E-03 0.00000E+00 6.09490E-19-7.85158E-19
 -1        19 0.00000E+00 0.00000E+00 2.00010E-03 0.00000E+00 5.23083E-19-1.12112E-19
 -1        20 0.00000E+00 0.00000E+00 2.00010E-03 0.00000E+00 2.30452E-19 4.46960E-19
 -3
    1PSTEP                       469          94           1          
  100CL  194 150862.9027          20                     0   94           1
 -4  FORC        4    1
 -5  F1          1    2    1    0
 -5  F2          1    2    2    0
 -5  F3          1    2    3    0
 -5  ALL         1    2    0    0    1ALL
 -1         1-1.46424E+01-1.46424E+01 2.07152E+01
 -1         2-1.46424E+01 1.46424E+01 2.07152E+01
 -1         3-1.46424E+01 1.46424E+01-2.07152E+01
 -1         4-1.46424E+01-1.46424E+01-2.07152E+01
 -1         5 1.46424E+01-1.46424E+01 2.07152E+01
 -1         6 1.46424E+01 1.46424E+01 2.07152E+01
 -1         7 1.46424E+01 1.46424E+01-2.07152E+01
 -1         8 1.46424E+01-1.46424E+01-2.07152E+01
 -1         9 5.85695E+01-1.06830E-14-8.28610E+01
 -1        10 5.85695E+01-5.85695E+01 3.99680E-15
 -1        11 5.85695E+01 3.57752E-15 8.28610E+01
 -1        12 5.85695E+01 5.85695E+01 1.90958E-14
 -1        13-7.23363E-15 5.85695E+01-8.28610E+01
 -1        14 1.18552E-14-5.85695E+01-8.28610E+01
 -1        15-6.97019E-15-5.85695E+01 8.28610E+01
 -1        16 1.79353E-15 5.85695E+01 8.28610E+01
 -1        17-5.85695E+01-2.41579E-15-8.28610E+01
 -1        18-5.85695E+01-5.85695E+01-3.55271E-15
 -1        19-5.85695E+01-3.35737E-15 8.28610E+01
 -1        20-5.85695E+01 5.85695E+01 5.99520E-15
 -3
    1PSTEP                       470          94           1          
  100CL  194 150862.9027          20                     0   94           1
 -4  ERROR       1    1
 -5  STR(%)      1    1    0    0
 -1         1 1.63750E-14
 -1         2 1.63750E-14
 -1         3 1.63750E-14
 -1         4 1.63750E-14
 -1         5 1.63750E-14
 -1         6 1.63750E-14
 -1         7 1.63750E-14
 -1         8 1.63750E-14
 -1         9 1.63750E-14
 -1        10 1.63750E-14
 -1        11 1.63750E-14
 -1        12 1.63750E-14
 -1        13 1.63750E-14
 -1        14 1.63750E-14
 -1        15 1.63750E-14
 -1        16 1.63750E-14
 -1        17 1.63750E-14
 -1        18 1.63750E-14
 -1        19 1.63750E-14
 -1        20 1.63750E-14
 -3
    1PSTEP                       471          95           1          
  100CL  195 153515.6535          20                     0   95           1
 -4  DISP        4    1
 -5  D1          1    2    1    0
 -5  D2          1    2    2    0
 -5  D3          1    2    3    0
 -5  ALL         1    2    0    0    1ALL
 -1         1 0.00000E+00 0.00000E+00 0.00000E+00
 -1         2 0.00000E+00 0.00000E+00 0.00000E+00
 -1         3 0.00000E+00 0.00000E+00 2.00000E-03
 -1         4 0.00000E+00 0.00000E+00 2.00000E-03
 -1         5 0.00000E+00 0.00000E+00 0.00000E+00
 -1         6 0.00000E+00 0.00000E+00 0.00000E+00
 -1         7 0.00000E+00 0.00000E+00 2.00000E-03
 -1         8 0.00000E+00 0.00000E+00 2.00000E-03
 -1         9 0.00000E+00 0.00000E+00 0.00000E+00
 -1        10 0.00000E+00 0.00000E+00 1.00000E-03
 -1        11 0.00000E+00 0.00000E+00 2.00000E-03
 -1        12 0.00000E+00 0.00000E+00 1.00000E-03
 -1        13 0.00000E+00 0.00000E+00 0.00000E+00
 -1        14 0.00000E+00 0.00000E+00 0.00000E+00
 -1        15 0.00000E+00 0.00000E+00 2.00000E-03
 -1        16 0.00000E+00 0.00000E+00 2.00000E-03
 -1        17 0.00000E+00 0.00000E+00 0.00000E+00
 -1        18 0.00000E+00 0.00000E+00 1.00000E-03
 -1        19 0.00000E+00 0.00000E+00 2.00000E-03
 -1        20 0.00000E+00 0.00000E+00 1.00000E-03
 -3
    1PSTEP                       472          95           1          
  100CL  195 153515.6535          20                     0   95           1
 -4  STRESS      6    1
 -5  SXX         1    4    1    1
 -5  SYY         1    4    2    2
 -5  SZZ         1    4    3    3
 -5  SXY         1    4    1    2
 -5  SYZ         1    4    2    3
 -5  SZX         1    4    3    1
 -1         1 1.75958E+02 1.75958E+02 2.48060E+02 0.00000E+00 1.48734E-14 2.59243E-14
 -1         2 1.75958E+02 1.75958E+02 2.48060E+02 0.00000E+00-2.33925E-14-2.91555E-14
 -1         3 1.75958E+02 1.75958E+02 2.48060E+02 0.00000E+00-3.63822E-15-4.32093E-14
 -1         4 1.75958E+02 1.75958E+02 2.48060E+02 0.00000E+00-8.32325E-15 6.35011E-14
 -1         5 1.75958E+02 1.75958E+02 2.48060E+02 0.00000E+00 1.06773E-14-9.12944E-15
 -1         6 1.75958E+02 1.75958E+02 2.48060E+02 0.00000E+00-7.71012E-15 3.12509E-16
 -1         7 1.75958E+02 1.75958E+02 2.48060E+02 0.00000E+00 6.96642E-14 5.09457E-14
 -1         8 1.75958E+02 1.75958E+02 2.48060E+02 0.00000E+00-1.05813E-16-1.35741E-14
 -1         9 1.75974E+02 1.75974E+02 2.48083E+02 0.00000E+00-1.50987E-14-7.37615E-15
 -1        10 1.75974E+02 1.75974E+02 2.48083E+02 0.00000E+00 1.58778E-14 1.38892E-14
 -1        11 1.75974E+02 1.75974E+02 2.48083E+02 0.00000E+00 9.17892E-15 8.06730E-15
 -1        12 1.75974E+02 1.75974E+02 2.48083E+02 0.00000E+00 8.72747E-15 6.19331E-15
 -1        13 1.75974E+02 1.75974E+02 2.48083E+02 0.00000E+00-6.20484E-15-9.13540E-16
 -1        14 1.75974E+02 1.75974E+02 2.48083E+02 0.00000E+00 1.47874E-14 3.22358E-15
 -1        15 1.75974E+02 1.75974E+02 2.48083E+02 0.00000E+00-4.19498E-14 8.98684E-15
 -1        16 1.75974E+02 1.75974E+02 2.48083E+02 0.00000E+00 1.60490E-14 1.50697E-14
 -1        17 1.75974E+02 1.75974E+02 2.48083E+02 0.00000E+00-1.75475E-15 8.20226E-15
 -1        18 1.75974E+02 1.75974E+02 2.48083E+02 0.00000E+00 2.19738E-14-2.83072E-14
 -1        19 1.75974E+02 1.75974E+02 2.48083E+02 0.00000E+00 1.88586E-14-4.04194E-15
 -1        20 1.75974E+02 1.75974E+02 2.48083E+02 0.00000E+00 8.30843E-15 1.61142E-14
 -3
    1PSTEP                       473          95           1          
  100CL  195 153515.6535          20                     0   95           1
 -4  TOSTRAIN    6    1
 -5  EXX         1    4    1    1
 -5  EYY         1    4    2    2
 -5  EZZ         1    4    3    3
 -5  EXY         1    4    1    2
 -5  EYZ         1    4    2    3
 -5  EZX         1    4    3    1
 -1         1 0.00000E+00 0.00000E+00 1.99992E-03 0.00000E+00 4.12546E-19 7.19066E-19
 -1         2 0.00000E+00 0.00000E+00 1.99992E-03 0.00000E+00-6.48839E-19-8.08690E-19
 -1         3 0.00000E+00 0.00000E+00 1.99992E-03 0.00000E+00-1.00914E-19-1.19850E-18
 -1         4 0.00000E+00 0.00000E+00 1.99992E-03 0.00000E+00-2.30863E-19 1.76134E-18
 -1         5 0.00000E+00 0.00000E+00 1.99992E-03 0.00000E+00 2.96159E-19-2.53224E-19
 -1         6 0.00000E+00 0.00000E+00 1.99992E-03 0.00000E+00-2.13856E-19 8.66809E-21
 -1         7 0.00000E+00 0.00000E+00 1.99992E-03 0.00000E+00 1.93228E-18 1.41309E-18
 -1         8 0.00000E+00 0.00000E+00 1.99992E-03 0.00000E+00-2.93494E-21-3.76507E-19
 -1         9 0.00000E+00 0.00000E+00 2.00010E-03 0.00000E+00-4.18795E-19-2.04593E-19
 -1        10 0.00000E+00 0.00000E+00 2.00010E-03 0.00000E+00 4.40404E-19 3.85247E-19
 -1        11 0.00000E+00 0.00000E+00 2.00010E-03 0.00000E+00 2.54597E-19 2.23763E-19
 -1        12 0.00000E+00 0.00000E+00 2.00010E-03 0.00000E+00 2.42075E-19 1.71784E-19
 -1        13 0.00000E+00 0.00000E+00 2.00010E-03 0.00000E+00-1.72104E-19-2.53389E-20
 -1        14 0.00000E+00 0.00000E+00 2.00010E-03 0.00000E+00 4.10158E-19 8.94127E-20
 -1        15 0.00000E+00 0.00000E+00 2.00010E-03 0.00000E+00-1.16356E-18 2.49269E-19
 -1        16 0.00000E+00 0.00000E+00 2.00010E-03 0.00000E+00 4.45153E-19 4.17991E-19
 -1        17 0.00000E+00 0.00000E+00 2.00010E-03 0.00000E+00-4.86716E-20 2.27507E-19
 -1        18 0.00000E+00 0.00000E+00 2.00010E-03 0.00000E+00 6.09490E-19-7.85158E-19
 -1        19 0.00000E+00 0.00000E+00 2.00010E-03 0.00000E+00 5.23083E-19-1.12112E-19
 -1        20 0.00000E+00 0.00000E+00 2.00010E-03 0.00000E+00 2.30452E-19 4.46960E-19
 -3
    1PSTEP                       474          95           1          
  100CL  195 153515.6535          20                     0   95           1
 -4  FORC        4    1
 -5  F1          1    2    1    0
 -5  F2          1    2    2    0
 -5  F3          1    2    3    0
 -5  ALL         1    2    0    0    1ALL
 -1         1-1.46637E+01-1.46637E+01 2.06725E+01
 -1         2-1.46637E+01 1.46637E+01 2.06725E+01
 -1         3-1.46637E+01 1.46637E+01-2.06725E+01
 -1         4-1.46637E+01-1.46637E+01-2.06725E+01
 -1         5 1.46637E+01-1.46637E+01 2.06725E+01
 -1         6 1.46637E+01 1.46637E+01 2.06725E+01
 -1         7 1.46637E+01 1.46637E+01-2.06725E+01
 -1         8 1.46637E+01-1.46637E+01-2.06725E+01
 -1         9 5.86549E+01-8.87858E-15-8.26901E+01
 -1        10 5.86549E+01-5.86549E+01 5.99520E-15
 -1        11 5.86549E+01 5.57566E-15 8.26901E+01
 -1        12 5.86549E+01 5.86549E+01 2.09277E-14
 -1        13-4.98524E-15 5.86549E+01-8.26901E+01
 -1        14 1.09684E-14-5.86549E+01-8.26901E+01
 -1        15-5.19526E-15-5.86549E+01 8.26901E+01
 -1        16-1.09323E-15 5.86549E+01 8.26901E+01
 -1        17-5.86549E+01-6.37368E-16-8.26901E+01
 -1        18-5.86549E+01-5.86549E+01-3.55271E-15
 -1        19-5.86549E+01 1.96964E-15 8.26901E+01
 -1        20-5.86549E+01 5.86549E+01 7.77156E-15
 -3
    1PSTEP                       475          95           1          
  100CL  195 153515.6535          20                     0   95           1
 -4  ERROR       1    1
 -5  STR(%)      1    1    0    0
 -1         1 1.64089E-14
 -1         2 1.64089E-14
 -1         3 1.64089E-14
 -1         4 1.64089E-14
 -1         5 1.64089E-14
 -1         6 1.64089E-14
 -1         7 1.64089E-14
 -1         8 1.64089E-14
 -1         9 1.64089E-14
 -1        10 1.64089E-14
 -1        11 1.64089E-14
 -1        12 1.64089E-14
 -1        13 1.64089E-14
 -1        14 1.64089E-14
 -1        15 1.64089E-14
 -1        16 1.64089E-14
 -1        17 1.64089E-14
 -1        18 1.64089E-14
 -1        19 1.64089E-14
 -1        20 1.64089E-14
 -3
    1PSTEP                       476          96           1          
  100CL  196 155378.7302          20                     0   96           1
 -4  DISP        4    1
 -5  D1          1    2    1    0
 -5  D2          1    2    2    0
 -5  D3          1    2    3    0
 -5  ALL         1    2    0    0    1ALL
 -1         1 0.00000E+00 0.00000E+00 0.00000E+00
 -1         2 0.00000E+00 0.00000E+00 0.00000E+00
 -1         3 0.00000E+00 0.00000E+00 2.00000E-03
 -1         4 0.00000E+00 0.00000E+00 2.00000E-03
 -1         5 0.00000E+00 0.00000E+00 0.00000E+00
 -1         6 0.00000E+00 0.00000E+00 0.00000E+00
 -1         7 0.00000E+00 0.00000E+00 2.00000E-03
 -1         8 0.00000E+00 0.00000E+00 2.00000E-03
 -1         9 0.00000E+00 0.00000E+00 0.00000E+00
 -1        10 0.00000E+00 0.00000E+00 1.00000E-03
 -1        11 0.00000E+00 0.00000E+00 2.00000E-03
 -1        12 0.00000E+00 0.00000E+00 1.00000E-03
 -1        13 0.00000E+00 0.00000E+00 0.00000E+00
 -1        14 0.00000E+00 0.00000E+00 0.00000E+00
 -1        15 0.00000E+00 0.00000E+00 2.00000E-03
 -1        16 0.00000E+00 0.00000E+00 2.00000E-03
 -1        17 0.00000E+00 0.00000E+00 0.00000E+00
 -1        18 0.00000E+00 0.00000E+00 1.00000E-03
 -1        19 0.00000E+00 0.00000E+00 2.00000E-03
 -1        20 0.00000E+00 0.00000E+00 1.00000E-03
 -3
    1PSTEP                       477          96           1          
  100CL  196 155378.7302          20                     0   96           1
 -4  STRESS      6    1
 -5  SXX         1    4    1    1
 -5  SYY         1    4    2    2
 -5  SZZ         1    4    3    3
 -5  SXY         1    4    1    2
 -5  SYZ         1    4    2    3
 -5  SZX         1    4    3    1
 -1         1 1.76136E+02 1.76136E+02 2.47703E+02 0.00000E+00 1.47629E-14 2.57316E-14
 -1         2 1.76136E+02 1.76136E+02 2.47703E+02 0.00000E+00-2.32186E-14-2.89388E-14
 -1         3 1.76136E+02 1.76136E+02 2.47703E+02 0.00000E+00-3.61118E-15-4.28882E-14
 -1         4 1.76136E+02 1.76136E+02 2.47703E+02 0.00000E+00-8.26138E-15 6.30291E-14
 -1         5 1.76136E+02 1.76136E+02 2.47703E+02 0.00000E+00 1.05980E-14-9.06158E-15
 -1         6 1.76136E+02 1.76136E+02 2.47703E+02 0.00000E+00-7.65281E-15 3.10186E-16
 -1         7 1.76136E+02 1.76136E+02 2.47703E+02 0.00000E+00 6.91464E-14 5.05670E-14
 -1         8 1.76136E+02 1.76136E+02 2.47703E+02 0.00000E+00-1.05026E-16-1.34732E-14
 -1         9 1.76152E+02 1.76152E+02 2.47725E+02 0.00000E+00-1.49865E-14-7.32132E-15
 -1        10 1.76152E+02 1.76152E+02 2.47725E+02 0.00000E+00 1.57598E-14 1.37860E-14
 -1        11 1.76152E+02 1.76152E+02 2.47725E+02 0.00000E+00 9.11069E-15 8.00733E-15
 -1        12 1.76152E+02 1.76152E+02 2.47725E+02 0.00000E+00 8.66260E-15 6.14728E-15
 -1        13 1.76152E+02 1.76152E+02 2.47725E+02 0.00000E+00-6.15872E-15-9.06750E-16
 -1        14 1.76152E+02 1.76152E+02 2.47725E+02 0.00000E+00 1.46775E-14 3.19962E-15
 -1        15 1.76152E+02 1.76152E+02 2.47725E+02 0.00000E+00-4.16380E-14 8.92004E-15
 -1        16 1.76152E+02 1.76152E+02 2.47725E+02 0.00000E+00 1.59297E-14 1.49577E-14
 -1        17 1.76152E+02 1.76152E+02 2.47725E+02 0.00000E+00-1.74170E-15 8.14130E-15
 -1        18 1.76152E+02 1.76152E+02 2.47725E+02 0.00000E+00 2.18105E-14-2.80968E-14
 -1        19 1.76152E+02 1.76152E+02 2.47725E+02 0.00000E+00 1.87184E-14-4.01190E-15
 -1        20 1.76152E+02 1.76152E+02 2.47725E+02 0.00000E+00 8.24667E-15 1.59944E-14
 -3
    1PSTEP                       478          96           1          
  100CL  196 155378.7302          20                     0   96           1
 -4  TOSTRAIN    6    1
 -5  EXX         1    4    1    1
 -5  EYY         1    4    2    2
 -5  EZZ         1    4    3    3
 -5  EXY         1    4    1    2
 -5  EYZ         1    4    2    3
 -5  EZX         1    4    3    1
 -1         1 0.00000E+00 0.00000E+00 1.99992E-03 0.00000E+00 4.12546E-19 7.19066E-19
 -1         2 0.00000E+00 0.00000E+00 1.99992E-03 0.00000E+00-6.48839E-19-8.08690E-19
 -1         3 0.00000E+00 0.00000E+00 1.99992E-03 0.00000E+00-1.00914E-19-1.19850E-18
 -1         4 0.00000E+00 0.00000E+00 1.99992E-03 0.00000E+00-2.30863E-19 1.76134E-18
 -1         5 0.00000E+00 0.00000E+00 1.99992E-03 0.00000E+00 2.96159E-19-2.53224E-19
 -1         6 0.00000E+00 0.00000E+00 1.99992E-03 0.00000E+00-2.13856E-19 8.66809E-21
 -1         7 0.00000E+00 0.00000E+00 1.99992E-03 0.00000E+00 1.93228E-18 1.41309E-18
 -1         8 0.00000E+00 0.00000E+00 1.99992E-03 0.00000E+00-2.93494E-21-3.76507E-19
 -1         9 0.00000E+00 0.00000E+00 2.00010E-03 0.00000E+00-4.18795E-19-2.04593E-19
 -1        10 0.00000E+00 0.00000E+00 2.00010E-03 0.00000E+00 4.40404E-19 3.85247E-19
 -1        11 0.00000E+00 0.00000E+00 2.00010E-03 0.00000E+00 2.54597E-19 2.23763E-19
 -1        12 0.00000E+00 0.00000E+00 2.00010E-03 0.00000E+00 2.42075E-19 1.71784E-19
 -1        13 0.00000E+00 0.00000E+00 2.00010E-03 0.00000E+00-1.72104E-19-2.53389E-20
 -1        14 0.00000E+00 0.00000E+00 2.00010E-03 0.00000E+00 4.10158E-19 8.94127E-20
 -1        15 0.00000E+00 0.00000E+00 2.00010E-03 0.00000E+00-1.16356E-18 2.49269E-19
 -1        16 0.00000E+00 0.00000E+00 2.00010E-03 0.00000E+00 4.45153E-19 4.17991E-19
 -1        17 0.00000E+00 0.00000E+00 2.00010E-03 0.00000E+00-4.86716E-20 2.27507E-19
 -1        18 0.00000E+00 0.00000E+00 2.00010E-03 0.00000E+00 6.09490E-19-7.85158E-19
 -1        19 0.00000E+00 0.00000E+00 2.00010E-03 0.00000E+00 5.23083E-19-1.12112E-19
 -1        20 0.00000E+00 0.00000E+00 2.00010E-03 0.00000E+00 2.30452E-19 4.46960E-19
 -3
    1PSTEP                       479          96           1          
  100CL  196 155378.7302          20                     0   96           1
 -4  FORC        4    1
 -5  F1          1    2    1    0
 -5  F2          1    2    2    0
 -5  F3          1    2    3    0
 -5  ALL         1    2    0    0    1ALL
 -1         1-1.46786E+01-1.46786E+01 2.06428E+01
 -1         2-1.46786E+01 1.46786E+01 2.06428E+01
 -1         3-1.46786E+01 1.46786E+01-2.06428E+01
 -1         4-1.46786E+01-1.46786E+01-2.06428E+01
 -1         5 1.46786E+01-1.46786E+01 2.06428E+01
 -1         6 1.46786E+01 1.46786E+01 2.06428E+01
 -1         7 1.46786E+01 1.46786E+01-2.06428E+01
 -1         8 1.46786E+01-1.46786E+01-2.06428E+01
 -1         9 5.87145E+01-6.21386E-15-8.25710E+01
 -1        10 5.87145E+01-5.87145E+01-6.66134E-16
 -1        11 5.87145E+01 5.79753E-15 8.25710E+01
 -1        12 5.87145E+01 5.87145E+01 2.27596E-14
 -1        13-1.50604E-14 5.87145E+01-8.25710E+01
 -1        14 8.74897E-15-5.87145E+01-8.25710E+01
 -1        15 1.07910E-14-5.87145E+01 8.25710E+01
 -1        16 2.45936E-15 5.87145E+01 8.25710E+01
 -1        17-5.87145E+01 3.13883E-15-8.25710E+01
 -1        18-5.87145E+01-5.87145E+01 1.77636E-15
 -1        19-5.87145E+01 1.96820E-15 8.25710E+01
 -1        20-5.87145E+01 5.87145E+01 3.10862E-15
 -3
    1PSTEP                       480          96           1          
  100CL  196 155378.7302          20                     0   96           1
 -4  ERROR       1    1
 -5  STR(%)      1    1    0    0
 -1         1 1.64325E-14
 -1         2 1.64325E-14
 -1         3 1.64325E-14
 -1         4 1.64325E-14
 -1         5 1.64325E-14
 -1         6 1.64325E-14
 -1         7 1.64325E-14
 -1         8 1.64325E-14
 -1         9 1.64325E-14
 -1        10 1.64325E-14
 -1        11 1.64325E-14
 -1        12 1.64325E-14
 -1        13 1.64325E-14
 -1        14 1.64325E-14
 -1        15 1.64325E-14
 -1        16 1.64325E-14
 -1        17 1.64325E-14
 -1        18 1.64325E-14
 -1        19 1.64325E-14
 -1        20 1.64325E-14
 -3
    1PSTEP                       481          97           1          
  100CL  197 157241.8070          20                     0   97           1
 -4  DISP        4    1
 -5  D1          1    2    1    0
 -5  D2          1    2    2    0
 -5  D3          1    2    3    0
 -5  ALL         1    2    0    0    1ALL
 -1         1 0.00000E+00 0.00000E+00 0.00000E+00
 -1         2 0.00000E+00 0.00000E+00 0.00000E+00
 -1         3 0.00000E+00 0.00000E+00 2.00000E-03
 -1         4 0.00000E+00 0.00000E+00 2.00000E-03
 -1         5 0.00000E+00 0.00000E+00 0.00000E+00
 -1         6 0.00000E+00 0.00000E+00 0.00000E+00
 -1         7 0.00000E+00 0.00000E+00 2.00000E-03
 -1         8 0.00000E+00 0.00000E+00 2.00000E-03
 -1         9 0.00000E+00 0.00000E+00 0.00000E+00
 -1        10 0.00000E+00 0.00000E+00 1.00000E-03
 -1        11 0.00000E+00 0.00000E+00 2.00000E-03
 -1        12 0.00000E+00 0.00000E+00 1.00000E-03
 -1        13 0.00000E+00 0.00000E+00 0.00000E+00
 -1        14 0.00000E+00 0.00000E+00 0.00000E+00
 -1        15 0.00000E+00 0.00000E+00 2.00000E-03
 -1        16 0.00000E+00 0.00000E+00 2.00000E-03
 -1        17 0.00000E+00 0.00000E+00 0.00000E+00
 -1        18 0.00000E+00 0.00000E+00 1.00000E-03
 -1        19 0.00000E+00 0.00000E+00 2.00000E-03
 -1        20 0.00000E+00 0.00000E+00 1.00000E-03
 -3
    1PSTEP                       482          97           1          
  100CL  197 157241.8070          20                     0   97           1
 -4  STRESS      6    1
 -5  SXX         1    4    1    1
 -5  SYY         1    4    2    2
 -5  SZZ         1    4    3    3
 -5  SXY         1    4    1    2
 -5  SYZ         1    4    2    3
 -5  SZX         1    4    3    1
 -1         1 1.76314E+02 1.76314E+02 2.47349E+02 0.00000E+00 1.46532E-14 2.55404E-14
 -1         2 1.76314E+02 1.76314E+02 2.47349E+02 0.00000E+00-2.30460E-14-2.87237E-14
 -1         3 1.76314E+02 1.76314E+02 2.47349E+02 0.00000E+00-3.58434E-15-4.25694E-14
 -1         4 1.76314E+02 1.76314E+02 2.47349E+02 0.00000E+00-8.19998E-15 6.25607E-14
 -1         5 1.76314E+02 1.76314E+02 2.47349E+02 0.00000E+00 1.05192E-14-8.99423E-15
 -1         6 1.76314E+02 1.76314E+02 2.47349E+02 0.00000E+00-7.59593E-15 3.07881E-16
 -1         7 1.76314E+02 1.76314E+02 2.47349E+02 0.00000E+00 6.86325E-14 5.01912E-14
 -1         8 1.76314E+02 1.76314E+02 2.47349E+02 0.00000E+00-1.04246E-16-1.33731E-14
 -1         9 1.76330E+02 1.76330E+02 2.47371E+02 0.00000E+00-1.48751E-14-7.26690E-15
 -1        10 1.76330E+02 1.76330E+02 2.47371E+02 0.00000E+00 1.56427E-14 1.36835E-14
 -1        11 1.76330E+02 1.76330E+02 2.47371E+02 0.00000E+00 9.04298E-15 7.94782E-15
 -1        12 1.76330E+02 1.76330E+02 2.47371E+02 0.00000E+00 8.59821E-15 6.10159E-15
 -1        13 1.76330E+02 1.76330E+02 2.47371E+02 0.00000E+00-6.11294E-15-9.00010E-16
 -1        14 1.76330E+02 1.76330E+02 2.47371E+02 0.00000E+00 1.45684E-14 3.17584E-15
 -1        15 1.76330E+02 1.76330E+02 2.47371E+02 0.00000E+00-4.13285E-14 8.85374E-15
 -1        16 1.76330E+02 1.76330E+02 2.47371E+02 0.00000E+00 1.58113E-14 1.48466E-14
 -1        17 1.76330E+02 1.76330E+02 2.47371E+02 0.00000E+00-1.72876E-15 8.08079E-15
 -1        18 1.76330E+02 1.76330E+02 2.47371E+02 0.00000E+00 2.16484E-14-2.78879E-14
 -1        19 1.76330E+02 1.76330E+02 2.47371E+02 0.00000E+00 1.85793E-14-3.98208E-15
 -1        20 1.76330E+02 1.76330E+02 2.47371E+02 0.00000E+00 8.18537E-15 1.58755E-14
 -3
    1PSTEP                       483          97           1          
  100CL  197 157241.8070          20                     0   97           1
 -4  TOSTRAIN    6    1
 -5  EXX         1    4    1    1
 -5  EYY         1    4    2    2
 -5  EZZ         1    4    3    3
 -5  EXY         1    4    1    2
 -5  EYZ         1    4    2    3
 -5  EZX         1    4    3    1
 -1         1 0.00000E+00 0.00000E+00 1.99992E-03 0.00000E+00 4.12546E-19 7.19066E-19
 -1         2 0.00000E+00 0.00000E+00 1.99992E-03 0.00000E+00-6.48839E-19-8.08690E-19
 -1         3 0.00000E+00 0.00000E+00 1.99992E-03 0.00000E+00-1.00914E-19-1.19850E-18
 -1         4 0.00000E+00 0.00000E+00 1.99992E-03 0.00000E+00-2.30863E-19 1.76134E-18
 -1         5 0.00000E+00 0.00000E+00 1.99992E-03 0.00000E+00 2.96159E-19-2.53224E-19
 -1         6 0.00000E+00 0.00000E+00 1.99992E-03 0.00000E+00-2.13856E-19 8.66809E-21
 -1         7 0.00000E+00 0.00000E+00 1.99992E-03 0.00000E+00 1.93228E-18 1.41309E-18
 -1         8 0.00000E+00 0.00000E+00 1.99992E-03 0.00000E+00-2.93494E-21-3.76507E-19
 -1         9 0.00000E+00 0.00000E+00 2.00010E-03 0.00000E+00-4.18795E-19-2.04593E-19
 -1        10 0.00000E+00 0.00000E+00 2.00010E-03 0.00000E+00 4.40404E-19 3.85247E-19
 -1        11 0.00000E+00 0.00000E+00 2.00010E-03 0.00000E+00 2.54597E-19 2.23763E-19
 -1        12 0.00000E+00 0.00000E+00 2.00010E-03 0.00000E+00 2.42075E-19 1.71784E-19
 -1        13 0.00000E+00 0.00000E+00 2.00010E-03 0.00000E+00-1.72104E-19-2.53389E-20
 -1        14 0.00000E+00 0.00000E+00 2.00010E-03 0.00000E+00 4.10158E-19 8.94127E-20
 -1        15 0.00000E+00 0.00000E+00 2.00010E-03 0.00000E+00-1.16356E-18 2.49269E-19
 -1        16 0.00000E+00 0.00000E+00 2.00010E-03 0.00000E+00 4.45153E-19 4.17991E-19
 -1        17 0.00000E+00 0.00000E+00 2.00010E-03 0.00000E+00-4.86716E-20 2.27507E-19
 -1        18 0.00000E+00 0.00000E+00 2.00010E-03 0.00000E+00 6.09490E-19-7.85158E-19
 -1        19 0.00000E+00 0.00000E+00 2.00010E-03 0.00000E+00 5.23083E-19-1.12112E-19
 -1        20 0.00000E+00 0.00000E+00 2.00010E-03 0.00000E+00 2.30452E-19 4.46960E-19
 -3
    1PSTEP                       484          97           1          
  100CL  197 157241.8070          20                     0   97           1
 -4  FORC        4    1
 -5  F1          1    2    1    0
 -5  F2          1    2    2    0
 -5  F3          1    2    3    0
 -5  ALL         1    2    0    0    1ALL
 -1         1-1.46934E+01-1.46934E+01 2.06132E+01
 -1         2-1.46934E+01 1.46934E+01 2.06132E+01
 -1         3-1.46934E+01 1.46934E+01-2.06132E+01
 -1         4-1.46934E+01-1.46934E+01-2.06132E+01
 -1         5 1.46934E+01-1.46934E+01 2.06132E+01
 -1         6 1.46934E+01 1.46934E+01 2.06132E+01
 -1         7 1.46934E+01 1.46934E+01-2.06132E+01
 -1         8 1.46934E+01-1.46934E+01-2.06132E+01
 -1         9 5.87736E+01-1.02105E-14-8.24528E+01
 -1        10 5.87736E+01-5.87736E+01 3.99680E-15
 -1        11 5.87736E+01 5.57530E-15 8.24528E+01
 -1        12 5.87736E+01 5.87736E+01 1.34337E-14
 -1        13 9.47566E-15 5.87736E+01-8.24528E+01
 -1        14 1.65215E-14-5.87736E+01-8.24528E+01
 -1        15-3.42089E-15-5.87736E+01 8.24528E+01
 -1        16 2.38789E-16 5.87736E+01 8.24528E+01
 -1        17-5.87736E+01 1.36390E-15-8.24528E+01
 -1        18-5.87736E+01-5.87736E+01-1.77636E-15
 -1        19-5.87736E+01 1.96677E-15 8.24528E+01
 -1        20-5.87736E+01 5.87736E+01 2.22045E-15
 -3
    1PSTEP                       485          97           1          
  100CL  197 157241.8070          20                     0   97           1
 -4  ERROR       1    1
 -5  STR(%)      1    1    0    0
 -1         1 1.70438E-14
 -1         2 1.70438E-14
 -1         3 1.70438E-14
 -1         4 1.70438E-14
 -1         5 1.70438E-14
 -1         6 1.70438E-14
 -1         7 1.70438E-14
 -1         8 1.70438E-14
 -1         9 1.70438E-14
 -1        10 1.70438E-14
 -1        11 1.70438E-14
 -1        12 1.70438E-14
 -1        13 1.70438E-14
 -1        14 1.70438E-14
 -1        15 1.70438E-14
 -1        16 1.70438E-14
 -1        17 1.70438E-14
 -1        18 1.70438E-14
 -1        19 1.70438E-14
 -1        20 1.70438E-14
 -3
    1PSTEP                       486          98           1          
  100CL  198 160036.4221          20                     0   98           1
 -4  DISP        4    1
 -5  D1          1    2    1    0
 -5  D2          1    2    2    0
 -5  D3          1    2    3    0
 -5  ALL         1    2    0    0    1ALL
 -1         1 0.00000E+00 0.00000E+00 0.00000E+00
 -1         2 0.00000E+00 0.00000E+00 0.00000E+00
 -1         3 0.00000E+00 0.00000E+00 2.00000E-03
 -1         4 0.00000E+00 0.00000E+00 2.00000E-03
 -1         5 0.00000E+00 0.00000E+00 0.00000E+00
 -1         6 0.00000E+00 0.00000E+00 0.00000E+00
 -1         7 0.00000E+00 0.00000E+00 2.00000E-03
 -1         8 0.00000E+00 0.00000E+00 2.00000E-03
 -1         9 0.00000E+00 0.00000E+00 0.00000E+00
 -1        10 0.00000E+00 0.00000E+00 1.00000E-03
 -1        11 0.00000E+00 0.00000E+00 2.00000E-03
 -1        12 0.00000E+00 0.00000E+00 1.00000E-03
 -1        13 0.00000E+00 0.00000E+00 0.00000E+00
 -1        14 0.00000E+00 0.00000E+00 0.00000E+00
 -1        15 0.00000E+00 0.00000E+00 2.00000E-03
 -1        16 0.00000E+00 0.00000E+00 2.00000E-03
 -1        17 0.00000E+00 0.00000E+00 0.00000E+00
 -1        18 0.00000E+00 0.00000E+00 1.00000E-03
 -1        19 0.00000E+00 0.00000E+00 2.00000E-03
 -1        20 0.00000E+00 0.00000E+00 1.00000E-03
 -3
    1PSTEP                       487          98           1          
  100CL  198 160036.4221          20                     0   98           1
 -4  STRESS      6    1
 -5  SXX         1    4    1    1
 -5  SYY         1    4    2    2
 -5  SZZ         1    4    3    3
 -5  SXY         1    4    1    2
 -5  SYZ         1    4    2    3
 -5  SZX         1    4    3    1
 -1         1 1.76577E+02 1.76577E+02 2.46823E+02 0.00000E+00 1.44904E-14 2.52567E-14
 -1         2 1.76577E+02 1.76577E+02 2.46823E+02 0.00000E+00-2.27900E-14-2.84047E-14
 -1         3 1.76577E+02 1.76577E+02 2.46823E+02 0.00000E+00-3.54452E-15-4.20965E-14
 -1         4 1.76577E+02 1.76577E+02 2.46823E+02 0.00000E+00-8.10889E-15 6.18657E-14
 -1         5 1.76577E+02 1.76577E+02 2.46823E+02 0.00000E+00 1.04024E-14-8.89432E-15
 -1         6 1.76577E+02 1.76577E+02 2.46823E+02 0.00000E+00-7.51155E-15 3.04461E-16
 -1         7 1.76577E+02 1.76577E+02 2.46823E+02 0.00000E+00 6.78701E-14 4.96337E-14
 -1         8 1.76577E+02 1.76577E+02 2.46823E+02 0.00000E+00-1.03088E-16-1.32245E-14
 -1         9 1.76593E+02 1.76593E+02 2.46845E+02 0.00000E+00-1.47099E-14-7.18619E-15
 -1        10 1.76593E+02 1.76593E+02 2.46845E+02 0.00000E+00 1.54689E-14 1.35315E-14
 -1        11 1.76593E+02 1.76593E+02 2.46845E+02 0.00000E+00 8.94253E-15 7.85953E-15
 -1        12 1.76593E+02 1.76593E+02 2.46845E+02 0.00000E+00 8.50270E-15 6.03381E-15
 -1        13 1.76593E+02 1.76593E+02 2.46845E+02 0.00000E+00-6.04504E-15-8.90013E-16
 -1        14 1.76593E+02 1.76593E+02 2.46845E+02 0.00000E+00 1.44065E-14 3.14056E-15
 -1        15 1.76593E+02 1.76593E+02 2.46845E+02 0.00000E+00-4.08694E-14 8.75540E-15
 -1        16 1.76593E+02 1.76593E+02 2.46845E+02 0.00000E+00 1.56357E-14 1.46816E-14
 -1        17 1.76593E+02 1.76593E+02 2.46845E+02 0.00000E+00-1.70956E-15 7.99103E-15
 -1        18 1.76593E+02 1.76593E+02 2.46845E+02 0.00000E+00 2.14079E-14-2.75781E-14
 -1        19 1.76593E+02 1.76593E+02 2.46845E+02 0.00000E+00 1.83729E-14-3.93784E-15
 -1        20 1.76593E+02 1.76593E+02 2.46845E+02 0.00000E+00 8.09445E-15 1.56992E-14
 -3
    1PSTEP                       488          98           1          
  100CL  198 160036.4221          20                     0   98           1
 -4  TOSTRAIN    6    1
 -5  EXX         1    4    1    1
 -5  EYY         1    4    2    2
 -5  EZZ         1    4    3    3
 -5  EXY         1    4    1    2
 -5  EYZ         1    4    2    3
 -5  EZX         1    4    3    1
 -1         1 0.00000E+00 0.00000E+00 1.99992E-03 0.00000E+00 4.12546E-19 7.19066E-19
 -1         2 0.00000E+00 0.00000E+00 1.99992E-03 0.00000E+00-6.48839E-19-8.08690E-19
 -1         3 0.00000E+00 0.00000E+00 1.99992E-03 0.00000E+00-1.00914E-19-1.19850E-18
 -1         4 0.00000E+00 0.00000E+00 1.99992E-03 0.00000E+00-2.30863E-19 1.76134E-18
 -1         5 0.00000E+00 0.00000E+00 1.99992E-03 0.00000E+00 2.96159E-19-2.53224E-19
 -1         6 0.00000E+00 0.00000E+00 1.99992E-03 0.00000E+00-2.13856E-19 8.66809E-21
 -1         7 0.00000E+00 0.00000E+00 1.99992E-03 0.00000E+00 1.93228E-18 1.41309E-18
 -1         8 0.00000E+00 0.00000E+00 1.99992E-03 0.00000E+00-2.93494E-21-3.76507E-19
 -1         9 0.00000E+00 0.00000E+00 2.00010E-03 0.00000E+00-4.18795E-19-2.04593E-19
 -1        10 0.00000E+00 0.00000E+00 2.00010E-03 0.00000E+00 4.40404E-19 3.85247E-19
 -1        11 0.00000E+00 0.00000E+00 2.00010E-03 0.00000E+00 2.54597E-19 2.23763E-19
 -1        12 0.00000E+00 0.00000E+00 2.00010E-03 0.00000E+00 2.42075E-19 1.71784E-19
 -1        13 0.00000E+00 0.00000E+00 2.00010E-03 0.00000E+00-1.72104E-19-2.53389E-20
 -1        14 0.00000E+00 0.00000E+00 2.00010E-03 0.00000E+00 4.10158E-19 8.94127E-20
 -1        15 0.00000E+00 0.00000E+00 2.00010E-03 0.00000E+00-1.16356E-18 2.49269E-19
 -1        16 0.00000E+00 0.00000E+00 2.00010E-03 0.00000E+00 4.45153E-19 4.17991E-19
 -1        17 0.00000E+00 0.00000E+00 2.00010E-03 0.00000E+00-4.86716E-20 2.27507E-19
 -1        18 0.00000E+00 0.00000E+00 2.00010E-03 0.00000E+00 6.09490E-19-7.85158E-19
 -1        19 0.00000E+00 0.00000E+00 2.00010E-03 0.00000E+00 5.23083E-19-1.12112E-19
 -1        20 0.00000E+00 0.00000E+00 2.00010E-03 0.00000E+00 2.30452E-19 4.46960E-19
 -3
    1PSTEP                       489          98           1          
  100CL  198 160036.4221          20                     0   98           1
 -4  FORC        4    1
 -5  F1          1    2    1    0
 -5  F2          1    2    2    0
 -5  F3          1    2    3    0
 -5  ALL         1    2    0    0    1ALL
 -1         1-1.47153E+01-1.47153E+01 2.05694E+01
 -1         2-1.47153E+01 1.47153E+01 2.05694E+01
 -1         3-1.47153E+01 1.47153E+01-2.05694E+01
 -1         4-1.47153E+01-1.47153E+01-2.05694E+01
 -1         5 1.47153E+01-1.47153E+01 2.05694E+01
 -1         6 1.47153E+01 1.47153E+01 2.05694E+01
 -1         7 1.47153E+01 1.47153E+01-2.05694E+01
 -1         8 1.47153E+01-1.47153E+01-2.05694E+01
 -1         9 5.88613E+01-8.43386E-15-8.22775E+01
 -1        10 5.88613E+01-5.88613E+01 9.76996E-15
 -1        11 5.88613E+01 4.02072E-15 8.22775E+01
 -1        12 5.88613E+01 5.88613E+01 2.04836E-14
 -1        13 1.48224E-15 5.88613E+01-8.22775E+01
 -1        14 2.05198E-14-5.88613E+01-8.22775E+01
 -1        15-5.19871E-15-5.88613E+01 8.22775E+01
 -1        16-1.13077E-14 5.88613E+01 8.22775E+01
 -1        17-5.88613E+01 1.58806E-15-8.22775E+01
 -1        18-5.88613E+01-5.88613E+01 1.06581E-14
 -1        19-5.88613E+01 3.74102E-15 8.22775E+01
 -1        20-5.88613E+01 5.88613E+01 7.77156E-15
 -3
    1PSTEP                       490          98           1          
  100CL  198 160036.4221          20                     0   98           1
 -4  ERROR       1    1
 -5  STR(%)      1    1    0    0
 -1         1 2.47368E-14
 -1         2 2.47368E-14
 -1         3 2.47368E-14
 -1         4 2.47368E-14
 -1         5 2.47368E-14
 -1         6 2.47368E-14
 -1         7 2.47368E-14
 -1         8 2.47368E-14
 -1         9 2.47368E-14
 -1        10 2.47368E-14
 -1        11 2.47368E-14
 -1        12 2.47368E-14
 -1        13 2.47368E-14
 -1        14 2.47368E-14
 -1        15 2.47368E-14
 -1        16 2.47368E-14
 -1        17 2.47368E-14
 -1        18 2.47368E-14
 -1        19 2.47368E-14
 -1        20 2.47368E-14
 -3
    1PSTEP                       491          99           1          
  100CL  199 161853.2003          20                     0   99           1
 -4  DISP        4    1
 -5  D1          1    2    1    0
 -5  D2          1    2    2    0
 -5  D3          1    2    3    0
 -5  ALL         1    2    0    0    1ALL
 -1         1 0.00000E+00 0.00000E+00 0.00000E+00
 -1         2 0.00000E+00 0.00000E+00 0.00000E+00
 -1         3 0.00000E+00 0.00000E+00 2.00000E-03
 -1         4 0.00000E+00 0.00000E+00 2.00000E-03
 -1         5 0.00000E+00 0.00000E+00 0.00000E+00
 -1         6 0.00000E+00 0.00000E+00 0.00000E+00
 -1         7 0.00000E+00 0.00000E+00 2.00000E-03
 -1         8 0.00000E+00 0.00000E+00 2.00000E-03
 -1         9 0.00000E+00 0.00000E+00 0.00000E+00
 -1        10 0.00000E+00 0.00000E+00 1.00000E-03
 -1        11 0.00000E+00 0.00000E+00 2.00000E-03
 -1        12 0.00000E+00 0.00000E+00 1.00000E-03
 -1        13 0.00000E+00 0.00000E+00 0.00000E+00
 -1        14 0.00000E+00 0.00000E+00 0.00000E+00
 -1        15 0.00000E+00 0.00000E+00 2.00000E-03
 -1        16 0.00000E+00 0.00000E+00 2.00000E-03
 -1        17 0.00000E+00 0.00000E+00 0.00000E+00
 -1        18 0.00000E+00 0.00000E+00 1.00000E-03
 -1        19 0.00000E+00 0.00000E+00 2.00000E-03
 -1        20 0.00000E+00 0.00000E+00 1.00000E-03
 -3
    1PSTEP                       492          99           1          
  100CL  199 161853.2003          20                     0   99           1
 -4  STRESS      6    1
 -5  SXX         1    4    1    1
 -5  SYY         1    4    2    2
 -5  SZZ         1    4    3    3
 -5  SXY         1    4    1    2
 -5  SYZ         1    4    2    3
 -5  SZX         1    4    3    1
 -1         1 1.76746E+02 1.76746E+02 2.46483E+02 0.00000E+00 1.43853E-14 2.50736E-14
 -1         2 1.76746E+02 1.76746E+02 2.46483E+02 0.00000E+00-2.26248E-14-2.81987E-14
 -1         3 1.76746E+02 1.76746E+02 2.46483E+02 0.00000E+00-3.51883E-15-4.17914E-14
 -1         4 1.76746E+02 1.76746E+02 2.46483E+02 0.00000E+00-8.05011E-15 6.14173E-14
 -1         5 1.76746E+02 1.76746E+02 2.46483E+02 0.00000E+00 1.03270E-14-8.82985E-15
 -1         6 1.76746E+02 1.76746E+02 2.46483E+02 0.00000E+00-7.45710E-15 3.02254E-16
 -1         7 1.76746E+02 1.76746E+02 2.46483E+02 0.00000E+00 6.73781E-14 4.92738E-14
 -1         8 1.76746E+02 1.76746E+02 2.46483E+02 0.00000E+00-1.02340E-16-1.31287E-14
 -1         9 1.76762E+02 1.76762E+02 2.46505E+02 0.00000E+00-1.46033E-14-7.13409E-15
 -1        10 1.76762E+02 1.76762E+02 2.46505E+02 0.00000E+00 1.53568E-14 1.34334E-14
 -1        11 1.76762E+02 1.76762E+02 2.46505E+02 0.00000E+00 8.87770E-15 7.80256E-15
 -1        12 1.76762E+02 1.76762E+02 2.46505E+02 0.00000E+00 8.44106E-15 5.99007E-15
 -1        13 1.76762E+02 1.76762E+02 2.46505E+02 0.00000E+00-6.00122E-15-8.83561E-16
 -1        14 1.76762E+02 1.76762E+02 2.46505E+02 0.00000E+00 1.43021E-14 3.11779E-15
 -1        15 1.76762E+02 1.76762E+02 2.46505E+02 0.00000E+00-4.05731E-14 8.69193E-15
 -1        16 1.76762E+02 1.76762E+02 2.46505E+02 0.00000E+00 1.55223E-14 1.45752E-14
 -1        17 1.76762E+02 1.76762E+02 2.46505E+02 0.00000E+00-1.69716E-15 7.93310E-15
 -1        18 1.76762E+02 1.76762E+02 2.46505E+02 0.00000E+00 2.12527E-14-2.73782E-14
 -1        19 1.76762E+02 1.76762E+02 2.46505E+02 0.00000E+00 1.82397E-14-3.90930E-15
 -1        20 1.76762E+02 1.76762E+02 2.46505E+02 0.00000E+00 8.03577E-15 1.55853E-14
 -3
    1PSTEP                       493          99           1          
  100CL  199 161853.2003          20                     0   99           1
 -4  TOSTRAIN    6    1
 -5  EXX         1    4    1    1
 -5  EYY         1    4    2    2
 -5  EZZ         1    4    3    3
 -5  EXY         1    4    1    2
 -5  EYZ         1    4    2    3
 -5  EZX         1    4    3    1
 -1         1 0.00000E+00 0.00000E+00 1.99992E-03 0.00000E+00 4.12546E-19 7.19066E-19
 -1         2 0.00000E+00 0.00000E+00 1.99992E-03 0.00000E+00-6.48839E-19-8.08690E-19
 -1         3 0.00000E+00 0.00000E+00 1.99992E-03 0.00000E+00-1.00914E-19-1.19850E-18
 -1         4 0.00000E+00 0.00000E+00 1.99992E-03 0.00000E+00-2.30863E-19 1.76134E-18
 -1         5 0.00000E+00 0.00000E+00 1.99992E-03 0.00000E+00 2.96159E-19-2.53224E-19
 -1         6 0.00000E+00 0.00000E+00 1.99992E-03 0.00000E+00-2.13856E-19 8.66809E-21
 -1         7 0.00000E+00 0.00000E+00 1.99992E-03 0.00000E+00 1.93228E-18 1.41309E-18
 -1         8 0.00000E+00 0.00000E+00 1.99992E-03 0.00000E+00-2.93494E-21-3.76507E-19
 -1         9 0.00000E+00 0.00000E+00 2.00010E-03 0.00000E+00-4.18795E-19-2.04593E-19
 -1        10 0.00000E+00 0.00000E+00 2.00010E-03 0.00000E+00 4.40404E-19 3.85247E-19
 -1        11 0.00000E+00 0.00000E+00 2.00010E-03 0.00000E+00 2.54597E-19 2.23763E-19
 -1        12 0.00000E+00 0.00000E+00 2.00010E-03 0.00000E+00 2.42075E-19 1.71784E-19
 -1        13 0.00000E+00 0.00000E+00 2.00010E-03 0.00000E+00-1.72104E-19-2.53389E-20
 -1        14 0.00000E+00 0.00000E+00 2.00010E-03 0.00000E+00 4.10158E-19 8.94127E-20
 -1        15 0.00000E+00 0.00000E+00 2.00010E-03 0.00000E+00-1.16356E-18 2.49269E-19
 -1        16 0.00000E+00 0.00000E+00 2.00010E-03 0.00000E+00 4.45153E-19 4.17991E-19
 -1        17 0.00000E+00 0.00000E+00 2.00010E-03 0.00000E+00-4.86716E-20 2.27507E-19
 -1        18 0.00000E+00 0.00000E+00 2.00010E-03 0.00000E+00 6.09490E-19-7.85158E-19
 -1        19 0.00000E+00 0.00000E+00 2.00010E-03 0.00000E+00 5.23083E-19-1.12112E-19
 -1        20 0.00000E+00 0.00000E+00 2.00010E-03 0.00000E+00 2.30452E-19 4.46960E-19
 -3
    1PSTEP                       494          99           1          
  100CL  199 161853.2003          20                     0   99           1
 -4  FORC        4    1
 -5  F1          1    2    1    0
 -5  F2          1    2    2    0
 -5  F3          1    2    3    0
 -5  ALL         1    2    0    0    1ALL
 -1         1-1.47295E+01-1.47295E+01 2.05411E+01
 -1         2-1.47295E+01 1.47295E+01 2.05411E+01
 -1         3-1.47295E+01 1.47295E+01-2.05411E+01
 -1         4-1.47295E+01-1.47295E+01-2.05411E+01
 -1         5 1.47295E+01-1.47295E+01 2.05411E+01
 -1         6 1.47295E+01 1.47295E+01 2.05411E+01
 -1         7 1.47295E+01 1.47295E+01-2.05411E+01
 -1         8 1.47295E+01-1.47295E+01-2.05411E+01
 -1         9 5.89179E+01-5.57486E-15-8.21643E+01
 -1        10 5.89179E+01-5.89179E+01 1.02141E-14
 -1        11 5.89179E+01 9.12757E-15 8.21643E+01
 -1        12 5.89179E+01 5.89179E+01 2.52576E-14
 -1        13-1.32281E-14 5.89179E+01-8.21643E+01
 -1        14 8.75237E-15-5.89179E+01-8.21643E+01
 -1        15 3.68213E-15-5.89179E+01 8.21643E+01
 -1        16-8.42126E-15 5.89179E+01 8.21643E+01
 -1        17-5.89179E+01 1.36738E-15-8.21643E+01
 -1        18-5.89179E+01-5.89179E+01 0.00000E+00
 -1        19-5.89179E+01 1.96329E-15 8.21643E+01
 -1        20-5.89179E+01 5.89179E+01 7.99361E-15
 -3
    1PSTEP                       495          99           1          
  100CL  199 161853.2003          20                     0   99           1
 -4  ERROR       1    1
 -5  STR(%)      1    1    0    0
 -1         1 1.59241E-14
 -1         2 1.59241E-14
 -1         3 1.59241E-14
 -1         4 1.59241E-14
 -1         5 1.59241E-14
 -1         6 1.59241E-14
 -1         7 1.59241E-14
 -1         8 1.59241E-14
 -1         9 1.59241E-14
 -1        10 1.59241E-14
 -1        11 1.59241E-14
 -1        12 1.59241E-14
 -1        13 1.59241E-14
 -1        14 1.59241E-14
 -1        15 1.59241E-14
 -1        16 1.59241E-14
 -1        17 1.59241E-14
 -1        18 1.59241E-14
 -1        19 1.59241E-14
 -1        20 1.59241E-14
 -3
    1PSTEP                       496         100           1          
  100CL  200 163669.9784          20                     0  100           1
 -4  DISP        4    1
 -5  D1          1    2    1    0
 -5  D2          1    2    2    0
 -5  D3          1    2    3    0
 -5  ALL         1    2    0    0    1ALL
 -1         1 0.00000E+00 0.00000E+00 0.00000E+00
 -1         2 0.00000E+00 0.00000E+00 0.00000E+00
 -1         3 0.00000E+00 0.00000E+00 2.00000E-03
 -1         4 0.00000E+00 0.00000E+00 2.00000E-03
 -1         5 0.00000E+00 0.00000E+00 0.00000E+00
 -1         6 0.00000E+00 0.00000E+00 0.00000E+00
 -1         7 0.00000E+00 0.00000E+00 2.00000E-03
 -1         8 0.00000E+00 0.00000E+00 2.00000E-03
 -1         9 0.00000E+00 0.00000E+00 0.00000E+00
 -1        10 0.00000E+00 0.00000E+00 1.00000E-03
 -1        11 0.00000E+00 0.00000E+00 2.00000E-03
 -1        12 0.00000E+00 0.00000E+00 1.00000E-03
 -1        13 0.00000E+00 0.00000E+00 0.00000E+00
 -1        14 0.00000E+00 0.00000E+00 0.00000E+00
 -1        15 0.00000E+00 0.00000E+00 2.00000E-03
 -1        16 0.00000E+00 0.00000E+00 2.00000E-03
 -1        17 0.00000E+00 0.00000E+00 0.00000E+00
 -1        18 0.00000E+00 0.00000E+00 1.00000E-03
 -1        19 0.00000E+00 0.00000E+00 2.00000E-03
 -1        20 0.00000E+00 0.00000E+00 1.00000E-03
 -3
    1PSTEP                       497         100           1          
  100CL  200 163669.9784          20                     0  100           1
 -4  STRESS      6    1
 -5  SXX         1    4    1    1
 -5  SYY         1    4    2    2
 -5  SZZ         1    4    3    3
 -5  SXY         1    4    1    2
 -5  SYZ         1    4    2    3
 -5  SZX         1    4    3    1
 -1         1 1.76915E+02 1.76915E+02 2.46146E+02 0.00000E+00 1.42811E-14 2.48918E-14
 -1         2 1.76915E+02 1.76915E+02 2.46146E+02 0.00000E+00-2.24608E-14-2.79943E-14
 -1         3 1.76915E+02 1.76915E+02 2.46146E+02 0.00000E+00-3.49332E-15-4.14884E-14
 -1         4 1.76915E+02 1.76915E+02 2.46146E+02 0.00000E+00-7.99175E-15 6.09720E-14
 -1         5 1.76915E+02 1.76915E+02 2.46146E+02 0.00000E+00 1.02521E-14-8.76583E-15
 -1         6 1.76915E+02 1.76915E+02 2.46146E+02 0.00000E+00-7.40304E-15 3.00062E-16
 -1         7 1.76915E+02 1.76915E+02 2.46146E+02 0.00000E+00 6.68896E-14 4.89166E-14
 -1         8 1.76915E+02 1.76915E+02 2.46146E+02 0.00000E+00-1.01598E-16-1.30335E-14
 -1         9 1.76931E+02 1.76931E+02 2.46168E+02 0.00000E+00-1.44974E-14-7.08237E-15
 -1        10 1.76931E+02 1.76931E+02 2.46168E+02 0.00000E+00 1.52454E-14 1.33361E-14
 -1        11 1.76931E+02 1.76931E+02 2.46168E+02 0.00000E+00 8.81334E-15 7.74599E-15
 -1        12 1.76931E+02 1.76931E+02 2.46168E+02 0.00000E+00 8.37987E-15 5.94664E-15
 -1        13 1.76931E+02 1.76931E+02 2.46168E+02 0.00000E+00-5.95771E-15-8.77156E-16
 -1        14 1.76931E+02 1.76931E+02 2.46168E+02 0.00000E+00 1.41984E-14 3.09519E-15
 -1        15 1.76931E+02 1.76931E+02 2.46168E+02 0.00000E+00-4.02790E-14 8.62891E-15
 -1        16 1.76931E+02 1.76931E+02 2.46168E+02 0.00000E+00 1.54098E-14 1.44695E-14
 -1        17 1.76931E+02 1.76931E+02 2.46168E+02 0.00000E+00-1.68486E-15 7.87558E-15
 -1        18 1.76931E+02 1.76931E+02 2.46168E+02 0.00000E+00 2.10987E-14-2.71797E-14
 -1        19 1.76931E+02 1.76931E+02 2.46168E+02 0.00000E+00 1.81075E-14-3.88096E-15
 -1        20 1.76931E+02 1.76931E+02 2.46168E+02 0.00000E+00 7.97752E-15 1.54724E-14
 -3
    1PSTEP                       498         100           1          
  100CL  200 163669.9784          20                     0  100           1
 -4  TOSTRAIN    6    1
 -5  EXX         1    4    1    1
 -5  EYY         1    4    2    2
 -5  EZZ         1    4    3    3
 -5  EXY         1    4    1    2
 -5  EYZ         1    4    2    3
 -5  EZX         1    4    3    1
 -1         1 0.00000E+00 0.00000E+00 1.99992E-03 0.00000E+00 4.12546E-19 7.19066E-19
 -1         2 0.00000E+00 0.00000E+00 1.99992E-03 0.00000E+00-6.48839E-19-8.08690E-19
 -1         3 0.00000E+00 0.00000E+00 1.99992E-03 0.00000E+00-1.00914E-19-1.19850E-18
 -1         4 0.00000E+00 0.00000E+00 1.99992E-03 0.00000E+00-2.30863E-19 1.76134E-18
 -1         5 0.00000E+00 0.00000E+00 1.99992E-03 0.00000E+00 2.96159E-19-2.53224E-19
 -1         6 0.00000E+00 0.00000E+00 1.99992E-03 0.00000E+00-2.13856E-19 8.66809E-21
 -1         7 0.00000E+00 0.00000E+00 1.99992E-03 0.00000E+00 1.93228E-18 1.41309E-18
 -1         8 0.00000E+00 0.00000E+00 1.99992E-03 0.00000E+00-2.93494E-21-3.76507E-19
 -1         9 0.00000E+00 0.00000E+00 2.00010E-03 0.00000E+00-4.18795E-19-2.04593E-19
 -1        10 0.00000E+00 0.00000E+00 2.00010E-03 0.00000E+00 4.40404E-19 3.85247E-19
 -1        11 0.00000E+00 0.00000E+00 2.00010E-03 0.00000E+00 2.54597E-19 2.23763E-19
 -1        12 0.00000E+00 0.00000E+00 2.00010E-03 0.00000E+00 2.42075E-19 1.71784E-19
 -1        13 0.00000E+00 0.00000E+00 2.00010E-03 0.00000E+00-1.72104E-19-2.53389E-20
 -1        14 0.00000E+00 0.00000E+00 2.00010E-03 0.00000E+00 4.10158E-19 8.94127E-20
 -1        15 0.00000E+00 0.00000E+00 2.00010E-03 0.00000E+00-1.16356E-18 2.49269E-19
 -1        16 0.00000E+00 0.00000E+00 2.00010E-03 0.00000E+00 4.45153E-19 4.17991E-19
 -1        17 0.00000E+00 0.00000E+00 2.00010E-03 0.00000E+00-4.86716E-20 2.27507E-19
 -1        18 0.00000E+00 0.00000E+00 2.00010E-03 0.00000E+00 6.09490E-19-7.85158E-19
 -1        19 0.00000E+00 0.00000E+00 2.00010E-03 0.00000E+00 5.23083E-19-1.12112E-19
 -1        20 0.00000E+00 0.00000E+00 2.00010E-03 0.00000E+00 2.30452E-19 4.46960E-19
 -3
    1PSTEP                       499         100           1          
  100CL  200 163669.9784          20                     0  100           1
 -4  FORC        4    1
 -5  F1          1    2    1    0
 -5  F2          1    2    2    0
 -5  F3          1    2    3    0
 -5  ALL         1    2    0    0    1ALL
 -1         1-1.47435E+01-1.47435E+01 2.05130E+01
 -1         2-1.47435E+01 1.47435E+01 2.05130E+01
 -1         3-1.47435E+01 1.47435E+01-2.05130E+01
 -1         4-1.47435E+01-1.47435E+01-2.05130E+01
 -1         5 1.47435E+01-1.47435E+01 2.05130E+01
 -1         6 1.47435E+01 1.47435E+01 2.05130E+01
 -1         7 1.47435E+01 1.47435E+01-2.05130E+01
 -1         8 1.47435E+01-1.47435E+01-2.05130E+01
 -1         9 5.89740E+01-4.90855E-15-8.20520E+01
 -1        10 5.89740E+01-5.89740E+01-1.33227E-15
 -1        11 5.89740E+01 4.02037E-15 8.20520E+01
 -1        12 5.89740E+01 5.89740E+01 2.00950E-14
 -1        13 5.25724E-15 5.89740E+01-8.20520E+01
 -1        14 1.69690E-14-5.89740E+01-8.20520E+01
 -1        15-3.42423E-15-5.89740E+01 8.20520E+01
 -1        16-1.41945E-14 5.89740E+01 8.20520E+01
 -1        17-5.89740E+01 3.36713E-15-8.20520E+01
 -1        18-5.89740E+01-5.89740E+01 0.00000E+00
 -1        19-5.89740E+01 1.96194E-15 8.20520E+01
 -1        20-5.89740E+01 5.89740E+01-1.33227E-15
 -3
    1PSTEP                       500         100           1          
  100CL  200 163669.9784          20                     0  100           1
 -4  ERROR       1    1
 -5  STR(%)      1    1    0    0
 -1         1 1.83083E-14
 -1         2 1.83083E-14
 -1         3 1.83083E-14
 -1         4 1.83083E-14
 -1         5 1.83083E-14
 -1         6 1.83083E-14
 -1         7 1.83083E-14
 -1         8 1.83083E-14
 -1         9 1.83083E-14
 -1        10 1.83083E-14
 -1        11 1.83083E-14
 -1        12 1.83083E-14
 -1        13 1.83083E-14
 -1        14 1.83083E-14
 -1        15 1.83083E-14
 -1        16 1.83083E-14
 -1        17 1.83083E-14
 -1        18 1.83083E-14
 -1        19 1.83083E-14
 -1        20 1.83083E-14
 -3
    1PSTEP                       501         101           1          
  100CL  201 166395.1455          20                     0  101           1
 -4  DISP        4    1
 -5  D1          1    2    1    0
 -5  D2          1    2    2    0
 -5  D3          1    2    3    0
 -5  ALL         1    2    0    0    1ALL
 -1         1 0.00000E+00 0.00000E+00 0.00000E+00
 -1         2 0.00000E+00 0.00000E+00 0.00000E+00
 -1         3 0.00000E+00 0.00000E+00 2.00000E-03
 -1         4 0.00000E+00 0.00000E+00 2.00000E-03
 -1         5 0.00000E+00 0.00000E+00 0.00000E+00
 -1         6 0.00000E+00 0.00000E+00 0.00000E+00
 -1         7 0.00000E+00 0.00000E+00 2.00000E-03
 -1         8 0.00000E+00 0.00000E+00 2.00000E-03
 -1         9 0.00000E+00 0.00000E+00 0.00000E+00
 -1        10 0.00000E+00 0.00000E+00 1.00000E-03
 -1        11 0.00000E+00 0.00000E+00 2.00000E-03
 -1        12 0.00000E+00 0.00000E+00 1.00000E-03
 -1        13 0.00000E+00 0.00000E+00 0.00000E+00
 -1        14 0.00000E+00 0.00000E+00 0.00000E+00
 -1        15 0.00000E+00 0.00000E+00 2.00000E-03
 -1        16 0.00000E+00 0.00000E+00 2.00000E-03
 -1        17 0.00000E+00 0.00000E+00 0.00000E+00
 -1        18 0.00000E+00 0.00000E+00 1.00000E-03
 -1        19 0.00000E+00 0.00000E+00 2.00000E-03
 -1        20 0.00000E+00 0.00000E+00 1.00000E-03
 -3
    1PSTEP                       502         101           1          
  100CL  201 166395.1455          20                     0  101           1
 -4  STRESS      6    1
 -5  SXX         1    4    1    1
 -5  SYY         1    4    2    2
 -5  SZZ         1    4    3    3
 -5  SXY         1    4    1    2
 -5  SYZ         1    4    2    3
 -5  SZX         1    4    3    1
 -1         1 1.77165E+02 1.77165E+02 2.45646E+02 0.00000E+00 1.41263E-14 2.46221E-14
 -1         2 1.77165E+02 1.77165E+02 2.45646E+02 0.00000E+00-2.22174E-14-2.76910E-14
 -1         3 1.77165E+02 1.77165E+02 2.45646E+02 0.00000E+00-3.45547E-15-4.10389E-14
 -1         4 1.77165E+02 1.77165E+02 2.45646E+02 0.00000E+00-7.90516E-15 6.03114E-14
 -1         5 1.77165E+02 1.77165E+02 2.45646E+02 0.00000E+00 1.01410E-14-8.67086E-15
 -1         6 1.77165E+02 1.77165E+02 2.45646E+02 0.00000E+00-7.32283E-15 2.96811E-16
 -1         7 1.77165E+02 1.77165E+02 2.45646E+02 0.00000E+00 6.61649E-14 4.83866E-14
 -1         8 1.77165E+02 1.77165E+02 2.45646E+02 0.00000E+00-1.00498E-16-1.28923E-14
 -1         9 1.77181E+02 1.77181E+02 2.45668E+02 0.00000E+00-1.43403E-14-7.00564E-15
 -1        10 1.77181E+02 1.77181E+02 2.45668E+02 0.00000E+00 1.50802E-14 1.31916E-14
 -1        11 1.77181E+02 1.77181E+02 2.45668E+02 0.00000E+00 8.71785E-15 7.66207E-15
 -1        12 1.77181E+02 1.77181E+02 2.45668E+02 0.00000E+00 8.28908E-15 5.88221E-15
 -1        13 1.77181E+02 1.77181E+02 2.45668E+02 0.00000E+00-5.89316E-15-8.67652E-16
 -1        14 1.77181E+02 1.77181E+02 2.45668E+02 0.00000E+00 1.40446E-14 3.06165E-15
 -1        15 1.77181E+02 1.77181E+02 2.45668E+02 0.00000E+00-3.98426E-14 8.53542E-15
 -1        16 1.77181E+02 1.77181E+02 2.45668E+02 0.00000E+00 1.52429E-14 1.43128E-14
 -1        17 1.77181E+02 1.77181E+02 2.45668E+02 0.00000E+00-1.66660E-15 7.79025E-15
 -1        18 1.77181E+02 1.77181E+02 2.45668E+02 0.00000E+00 2.08701E-14-2.68852E-14
 -1        19 1.77181E+02 1.77181E+02 2.45668E+02 0.00000E+00 1.79113E-14-3.83891E-15
 -1        20 1.77181E+02 1.77181E+02 2.45668E+02 0.00000E+00 7.89108E-15 1.53047E-14
 -3
    1PSTEP                       503         101           1          
  100CL  201 166395.1455          20                     0  101           1
 -4  TOSTRAIN    6    1
 -5  EXX         1    4    1    1
 -5  EYY         1    4    2    2
 -5  EZZ         1    4    3    3
 -5  EXY         1    4    1    2
 -5  EYZ         1    4    2    3
 -5  EZX         1    4    3    1
 -1         1 0.00000E+00 0.00000E+00 1.99992E-03 0.00000E+00 4.12546E-19 7.19066E-19
 -1         2 0.00000E+00 0.00000E+00 1.99992E-03 0.00000E+00-6.48839E-19-8.08690E-19
 -1         3 0.00000E+00 0.00000E+00 1.99992E-03 0.00000E+00-1.00914E-19-1.19850E-18
 -1         4 0.00000E+00 0.00000E+00 1.99992E-03 0.00000E+00-2.30863E-19 1.76134E-18
 -1         5 0.00000E+00 0.00000E+00 1.99992E-03 0.00000E+00 2.96159E-19-2.53224E-19
 -1         6 0.00000E+00 0.00000E+00 1.99992E-03 0.00000E+00-2.13856E-19 8.66809E-21
 -1         7 0.00000E+00 0.00000E+00 1.99992E-03 0.00000E+00 1.93228E-18 1.41309E-18
 -1         8 0.00000E+00 0.00000E+00 1.99992E-03 0.00000E+00-2.93494E-21-3.76507E-19
 -1         9 0.00000E+00 0.00000E+00 2.00010E-03 0.00000E+00-4.18795E-19-2.04593E-19
 -1        10 0.00000E+00 0.00000E+00 2.00010E-03 0.00000E+00 4.40404E-19 3.85247E-19
 -1        11 0.00000E+00 0.00000E+00 2.00010E-03 0.00000E+00 2.54597E-19 2.23763E-19
 -1        12 0.00000E+00 0.00000E+00 2.00010E-03 0.00000E+00 2.42075E-19 1.71784E-19
 -1        13 0.00000E+00 0.00000E+00 2.00010E-03 0.00000E+00-1.72104E-19-2.53389E-20
 -1        14 0.00000E+00 0.00000E+00 2.00010E-03 0.00000E+00 4.10158E-19 8.94127E-20
 -1        15 0.00000E+00 0.00000E+00 2.00010E-03 0.00000E+00-1.16356E-18 2.49269E-19
 -1        16 0.00000E+00 0.00000E+00 2.00010E-03 0.00000E+00 4.45153E-19 4.17991E-19
 -1        17 0.00000E+00 0.00000E+00 2.00010E-03 0.00000E+00-4.86716E-20 2.27507E-19
 -1        18 0.00000E+00 0.00000E+00 2.00010E-03 0.00000E+00 6.09490E-19-7.85158E-19
 -1        19 0.00000E+00 0.00000E+00 2.00010E-03 0.00000E+00 5.23083E-19-1.12112E-19
 -1        20 0.00000E+00 0.00000E+00 2.00010E-03 0.00000E+00 2.30452E-19 4.46960E-19
 -3
    1PSTEP                       504         101           1          
  100CL  201 166395.1455          20                     0  101           1
 -4  FORC        4    1
 -5  F1          1    2    1    0
 -5  F2          1    2    2    0
 -5  F3          1    2    3    0
 -5  ALL         1    2    0    0    1ALL
 -1         1-1.47643E+01-1.47643E+01 2.04713E+01
 -1         2-1.47643E+01 1.47643E+01 2.04713E+01
 -1         3-1.47643E+01 1.47643E+01-2.04713E+01
 -1         4-1.47643E+01-1.47643E+01-2.04713E+01
 -1         5 1.47643E+01-1.47643E+01 2.04713E+01
 -1         6 1.47643E+01 1.47643E+01 2.04713E+01
 -1         7 1.47643E+01 1.47643E+01-2.04713E+01
 -1         8 1.47643E+01-1.47643E+01-2.04713E+01
 -1         9 5.90574E+01-5.10259E-15-8.18853E+01
 -1        10 5.90574E+01-5.90574E+01 1.99840E-15
 -1        11 5.90574E+01 9.12715E-15 8.18853E+01
 -1        12 5.90574E+01 5.90574E+01 2.56184E-14
 -1        13-2.18108E-15 5.90574E+01-8.18853E+01
 -1        14 1.11972E-14-5.90574E+01-8.18853E+01
 -1        15 5.45616E-15-5.90574E+01 8.18853E+01
 -1        16 2.38187E-16 5.90574E+01 8.18853E+01
 -1        17-5.90574E+01-1.95993E-15-8.18853E+01
 -1        18-5.90574E+01-5.90574E+01-3.55271E-15
 -1        19-5.90574E+01 1.95993E-15 8.18853E+01
 -1        20-5.90574E+01 5.90574E+01 7.77156E-15
 -3
    1PSTEP                       505         101           1          
  100CL  201 166395.1455          20                     0  101           1
 -4  ERROR       1    1
 -5  STR(%)      1    1    0    0
 -1         1 5.62202E-14
 -1         2 5.62202E-14
 -1         3 5.62202E-14
 -1         4 5.62202E-14
 -1         5 5.62202E-14
 -1         6 5.62202E-14
 -1         7 5.62202E-14
 -1         8 5.62202E-14
 -1         9 5.62202E-14
 -1        10 5.62202E-14
 -1        11 5.62202E-14
 -1        12 5.62202E-14
 -1        13 5.62202E-14
 -1        14 5.62202E-14
 -1        15 5.62202E-14
 -1        16 5.62202E-14
 -1        17 5.62202E-14
 -1        18 5.62202E-14
 -1        19 5.62202E-14
 -1        20 5.62202E-14
 -3
    1PSTEP                       506         102           1          
  100CL  202 168305.4508          20                     0  102           1
 -4  DISP        4    1
 -5  D1          1    2    1    0
 -5  D2          1    2    2    0
 -5  D3          1    2    3    0
 -5  ALL         1    2    0    0    1ALL
 -1         1 0.00000E+00 0.00000E+00 0.00000E+00
 -1         2 0.00000E+00 0.00000E+00 0.00000E+00
 -1         3 0.00000E+00 0.00000E+00 2.00000E-03
 -1         4 0.00000E+00 0.00000E+00 2.00000E-03
 -1         5 0.00000E+00 0.00000E+00 0.00000E+00
 -1         6 0.00000E+00 0.00000E+00 0.00000E+00
 -1         7 0.00000E+00 0.00000E+00 2.00000E-03
 -1         8 0.00000E+00 0.00000E+00 2.00000E-03
 -1         9 0.00000E+00 0.00000E+00 0.00000E+00
 -1        10 0.00000E+00 0.00000E+00 1.00000E-03
 -1        11 0.00000E+00 0.00000E+00 2.00000E-03
 -1        12 0.00000E+00 0.00000E+00 1.00000E-03
 -1        13 0.00000E+00 0.00000E+00 0.00000E+00
 -1        14 0.00000E+00 0.00000E+00 0.00000E+00
 -1        15 0.00000E+00 0.00000E+00 2.00000E-03
 -1        16 0.00000E+00 0.00000E+00 2.00000E-03
 -1        17 0.00000E+00 0.00000E+00 0.00000E+00
 -1        18 0.00000E+00 0.00000E+00 1.00000E-03
 -1        19 0.00000E+00 0.00000E+00 2.00000E-03
 -1        20 0.00000E+00 0.00000E+00 1.00000E-03
 -3
    1PSTEP                       507         102           1          
  100CL  202 168305.4508          20                     0  102           1
 -4  STRESS      6    1
 -5  SXX         1    4    1    1
 -5  SYY         1    4    2    2
 -5  SZZ         1    4    3    3
 -5  SXY         1    4    1    2
 -5  SYZ         1    4    2    3
 -5  SZX         1    4    3    1
 -1         1 1.77339E+02 1.77339E+02 2.45298E+02 0.00000E+00 1.40187E-14 2.44345E-14
 -1         2 1.77339E+02 1.77339E+02 2.45298E+02 0.00000E+00-2.20481E-14-2.74800E-14
 -1         3 1.77339E+02 1.77339E+02 2.45298E+02 0.00000E+00-3.42914E-15-4.07262E-14
 -1         4 1.77339E+02 1.77339E+02 2.45298E+02 0.00000E+00-7.84493E-15 5.98518E-14
 -1         5 1.77339E+02 1.77339E+02 2.45298E+02 0.00000E+00 1.00637E-14-8.60479E-15
 -1         6 1.77339E+02 1.77339E+02 2.45298E+02 0.00000E+00-7.26703E-15 2.94550E-16
 -1         7 1.77339E+02 1.77339E+02 2.45298E+02 0.00000E+00 6.56607E-14 4.80179E-14
 -1         8 1.77339E+02 1.77339E+02 2.45298E+02 0.00000E+00-9.97318E-17-1.27940E-14
 -1         9 1.77355E+02 1.77355E+02 2.45320E+02 0.00000E+00-1.42310E-14-6.95225E-15
 -1        10 1.77355E+02 1.77355E+02 2.45320E+02 0.00000E+00 1.49653E-14 1.30910E-14
 -1        11 1.77355E+02 1.77355E+02 2.45320E+02 0.00000E+00 8.65142E-15 7.60368E-15
 -1        12 1.77355E+02 1.77355E+02 2.45320E+02 0.00000E+00 8.22592E-15 5.83739E-15
 -1        13 1.77355E+02 1.77355E+02 2.45320E+02 0.00000E+00-5.84826E-15-8.61040E-16
 -1        14 1.77355E+02 1.77355E+02 2.45320E+02 0.00000E+00 1.39376E-14 3.03832E-15
 -1        15 1.77355E+02 1.77355E+02 2.45320E+02 0.00000E+00-3.95390E-14 8.47038E-15
 -1        16 1.77355E+02 1.77355E+02 2.45320E+02 0.00000E+00 1.51267E-14 1.42037E-14
 -1        17 1.77355E+02 1.77355E+02 2.45320E+02 0.00000E+00-1.65391E-15 7.73089E-15
 -1        18 1.77355E+02 1.77355E+02 2.45320E+02 0.00000E+00 2.07110E-14-2.66804E-14
 -1        19 1.77355E+02 1.77355E+02 2.45320E+02 0.00000E+00 1.77748E-14-3.80966E-15
 -1        20 1.77355E+02 1.77355E+02 2.45320E+02 0.00000E+00 7.83095E-15 1.51881E-14
 -3
    1PSTEP                       508         102           1          
  100CL  202 168305.4508          20                     0  102           1
 -4  TOSTRAIN    6    1
 -5  EXX         1    4    1    1
 -5  EYY         1    4    2    2
 -5  EZZ         1    4    3    3
 -5  EXY         1    4    1    2
 -5  EYZ         1    4    2    3
 -5  EZX         1    4    3    1
 -1         1 0.00000E+00 0.00000E+00 1.99992E-03 0.00000E+00 4.12546E-19 7.19066E-19
 -1         2 0.00000E+00 0.00000E+00 1.99992E-03 0.00000E+00-6.48839E-19-8.08690E-19
 -1         3 0.00000E+00 0.00000E+00 1.99992E-03 0.00000E+00-1.00914E-19-1.19850E-18
 -1         4 0.00000E+00 0.00000E+00 1.99992E-03 0.00000E+00-2.30863E-19 1.76134E-18
 -1         5 0.00000E+00 0.00000E+00 1.99992E-03 0.00000E+00 2.96159E-19-2.53224E-19
 -1         6 0.00000E+00 0.00000E+00 1.99992E-03 0.00000E+00-2.13856E-19 8.66809E-21
 -1         7 0.00000E+00 0.00000E+00 1.99992E-03 0.00000E+00 1.93228E-18 1.41309E-18
 -1         8 0.00000E+00 0.00000E+00 1.99992E-03 0.00000E+00-2.93494E-21-3.76507E-19
 -1         9 0.00000E+00 0.00000E+00 2.00010E-03 0.00000E+00-4.18795E-19-2.04593E-19
 -1        10 0.00000E+00 0.00000E+00 2.00010E-03 0.00000E+00 4.40404E-19 3.85247E-19
 -1        11 0.00000E+00 0.00000E+00 2.00010E-03 0.00000E+00 2.54597E-19 2.23763E-19
 -1        12 0.00000E+00 0.00000E+00 2.00010E-03 0.00000E+00 2.42075E-19 1.71784E-19
 -1        13 0.00000E+00 0.00000E+00 2.00010E-03 0.00000E+00-1.72104E-19-2.53389E-20
 -1        14 0.00000E+00 0.00000E+00 2.00010E-03 0.00000E+00 4.10158E-19 8.94127E-20
 -1        15 0.00000E+00 0.00000E+00 2.00010E-03 0.00000E+00-1.16356E-18 2.49269E-19
 -1        16 0.00000E+00 0.00000E+00 2.00010E-03 0.00000E+00 4.45153E-19 4.17991E-19
 -1        17 0.00000E+00 0.00000E+00 2.00010E-03 0.00000E+00-4.86716E-20 2.27507E-19
 -1        18 0.00000E+00 0.00000E+00 2.00010E-03 0.00000E+00 6.09490E-19-7.85158E-19
 -1        19 0.00000E+00 0.00000E+00 2.00010E-03 0.00000E+00 5.23083E-19-1.12112E-19
 -1        20 0.00000E+00 0.00000E+00 2.00010E-03 0.00000E+00 2.30452E-19 4.46960E-19
 -3
    1PSTEP                       509         102           1          
  100CL  202 168305.4508          20                     0  102           1
 -4  FORC        4    1
 -5  F1          1    2    1    0
 -5  F2          1    2    2    0
 -5  F3          1    2    3    0
 -5  ALL         1    2    0    0    1ALL
 -1         1-1.47788E+01-1.47788E+01 2.04423E+01
 -1         2-1.47788E+01 1.47788E+01 2.04423E+01
 -1         3-1.47788E+01 1.47788E+01-2.04423E+01
 -1         4-1.47788E+01-1.47788E+01-2.04423E+01
 -1         5 1.47788E+01-1.47788E+01 2.04423E+01
 -1         6 1.47788E+01 1.47788E+01 2.04423E+01
 -1         7 1.47788E+01 1.47788E+01-2.04423E+01
 -1         8 1.47788E+01-1.47788E+01-2.04423E+01
 -1         9 5.91154E+01-1.04315E-14-8.17693E+01
 -1        10 5.91154E+01-5.91154E+01 5.77316E-15
 -1        11 5.91154E+01 2.24358E-15 8.17693E+01
 -1        12 5.91154E+01 5.91154E+01 2.20934E-14
 -1        13 4.28610E-15 5.91154E+01-8.17693E+01
 -1        14 1.85256E-14-5.91154E+01-8.17693E+01
 -1        15-1.65024E-15-5.91154E+01 8.17693E+01
 -1        16-1.53829E-15 5.91154E+01 8.17693E+01
 -1        17-5.91154E+01 1.37214E-15-8.17693E+01
 -1        18-5.91154E+01-5.91154E+01 0.00000E+00
 -1        19-5.91154E+01 1.95853E-15 8.17693E+01
 -1        20-5.91154E+01 5.91154E+01 4.44089E-16
 -3
    1PSTEP                       510         102           1          
  100CL  202 168305.4508          20                     0  102           1
 -4  ERROR       1    1
 -5  STR(%)      1    1    0    0
 -1         1 1.00747E-14
 -1         2 1.00747E-14
 -1         3 1.00747E-14
 -1         4 1.00747E-14
 -1         5 1.00747E-14
 -1         6 1.00747E-14
 -1         7 1.00747E-14
 -1         8 1.00747E-14
 -1         9 1.00747E-14
 -1        10 1.00747E-14
 -1        11 1.00747E-14
 -1        12 1.00747E-14
 -1        13 1.00747E-14
 -1        14 1.00747E-14
 -1        15 1.00747E-14
 -1        16 1.00747E-14
 -1        17 1.00747E-14
 -1        18 1.00747E-14
 -1        19 1.00747E-14
 -1        20 1.00747E-14
 -3
    1PSTEP                       511         103           1          
  100CL  203 170215.7561          20                     0  103           1
 -4  DISP        4    1
 -5  D1          1    2    1    0
 -5  D2          1    2    2    0
 -5  D3          1    2    3    0
 -5  ALL         1    2    0    0    1ALL
 -1         1 0.00000E+00 0.00000E+00 0.00000E+00
 -1         2 0.00000E+00 0.00000E+00 0.00000E+00
 -1         3 0.00000E+00 0.00000E+00 2.00000E-03
 -1         4 0.00000E+00 0.00000E+00 2.00000E-03
 -1         5 0.00000E+00 0.00000E+00 0.00000E+00
 -1         6 0.00000E+00 0.00000E+00 0.00000E+00
 -1         7 0.00000E+00 0.00000E+00 2.00000E-03
 -1         8 0.00000E+00 0.00000E+00 2.00000E-03
 -1         9 0.00000E+00 0.00000E+00 0.00000E+00
 -1        10 0.00000E+00 0.00000E+00 1.00000E-03
 -1        11 0.00000E+00 0.00000E+00 2.00000E-03
 -1        12 0.00000E+00 0.00000E+00 1.00000E-03
 -1        13 0.00000E+00 0.00000E+00 0.00000E+00
 -1        14 0.00000E+00 0.00000E+00 0.00000E+00
 -1        15 0.00000E+00 0.00000E+00 2.00000E-03
 -1        16 0.00000E+00 0.00000E+00 2.00000E-03
 -1        17 0.00000E+00 0.00000E+00 0.00000E+00
 -1        18 0.00000E+00 0.00000E+00 1.00000E-03
 -1        19 0.00000E+00 0.00000E+00 2.00000E-03
 -1        20 0.00000E+00 0.00000E+00 1.00000E-03
 -3
    1PSTEP                       512         103           1          
  100CL  203 170215.7561          20                     0  103           1
 -4  STRESS      6    1
 -5  SXX         1    4    1    1
 -5  SYY         1    4    2    2
 -5  SZZ         1    4    3    3
 -5  SXY         1    4    1    2
 -5  SYZ         1    4    2    3
 -5  SZX         1    4    3    1
 -1         1 1.77512E+02 1.77512E+02 2.44953E+02 0.00000E+00 1.39119E-14 2.42483E-14
 -1         2 1.77512E+02 1.77512E+02 2.44953E+02 0.00000E+00-2.18801E-14-2.72706E-14
 -1         3 1.77512E+02 1.77512E+02 2.44953E+02 0.00000E+00-3.40301E-15-4.04159E-14
 -1         4 1.77512E+02 1.77512E+02 2.44953E+02 0.00000E+00-7.78515E-15 5.93958E-14
 -1         5 1.77512E+02 1.77512E+02 2.44953E+02 0.00000E+00 9.98705E-15-8.53922E-15
 -1         6 1.77512E+02 1.77512E+02 2.44953E+02 0.00000E+00-7.21166E-15 2.92305E-16
 -1         7 1.77512E+02 1.77512E+02 2.44953E+02 0.00000E+00 6.51604E-14 4.76521E-14
 -1         8 1.77512E+02 1.77512E+02 2.44953E+02 0.00000E+00-9.89718E-17-1.26966E-14
 -1         9 1.77528E+02 1.77528E+02 2.44975E+02 0.00000E+00-1.41226E-14-6.89928E-15
 -1        10 1.77528E+02 1.77528E+02 2.44975E+02 0.00000E+00 1.48513E-14 1.29913E-14
 -1        11 1.77528E+02 1.77528E+02 2.44975E+02 0.00000E+00 8.58550E-15 7.54574E-15
 -1        12 1.77528E+02 1.77528E+02 2.44975E+02 0.00000E+00 8.16324E-15 5.79291E-15
 -1        13 1.77528E+02 1.77528E+02 2.44975E+02 0.00000E+00-5.80369E-15-8.54480E-16
 -1        14 1.77528E+02 1.77528E+02 2.44975E+02 0.00000E+00 1.38314E-14 3.01517E-15
 -1        15 1.77528E+02 1.77528E+02 2.44975E+02 0.00000E+00-3.92377E-14 8.40584E-15
 -1        16 1.77528E+02 1.77528E+02 2.44975E+02 0.00000E+00 1.50114E-14 1.40955E-14
 -1        17 1.77528E+02 1.77528E+02 2.44975E+02 0.00000E+00-1.64130E-15 7.67199E-15
 -1        18 1.77528E+02 1.77528E+02 2.44975E+02 0.00000E+00 2.05532E-14-2.64771E-14
 -1        19 1.77528E+02 1.77528E+02 2.44975E+02 0.00000E+00 1.76394E-14-3.78063E-15
 -1        20 1.77528E+02 1.77528E+02 2.44975E+02 0.00000E+00 7.77128E-15 1.50724E-14
 -3
    1PSTEP                       513         103           1          
  100CL  203 170215.7561          20                     0  103           1
 -4  TOSTRAIN    6    1
 -5  EXX         1    4    1    1
 -5  EYY         1    4    2    2
 -5  EZZ         1    4    3    3
 -5  EXY         1    4    1    2
 -5  EYZ         1    4    2    3
 -5  EZX         1    4    3    1
 -1         1 0.00000E+00 0.00000E+00 1.99992E-03 0.00000E+00 4.12546E-19 7.19066E-19
 -1         2 0.00000E+00 0.00000E+00 1.99992E-03 0.00000E+00-6.48839E-19-8.08690E-19
 -1         3 0.00000E+00 0.00000E+00 1.99992E-03 0.00000E+00-1.00914E-19-1.19850E-18
 -1         4 0.00000E+00 0.00000E+00 1.99992E-03 0.00000E+00-2.30863E-19 1.76134E-18
 -1         5 0.00000E+00 0.00000E+00 1.99992E-03 0.00000E+00 2.96159E-19-2.53224E-19
 -1         6 0.00000E+00 0.00000E+00 1.99992E-03 0.00000E+00-2.13856E-19 8.66809E-21
 -1         7 0.00000E+00 0.00000E+00 1.99992E-03 0.00000E+00 1.93228E-18 1.41309E-18
 -1         8 0.00000E+00 0.00000E+00 1.99992E-03 0.00000E+00-2.93494E-21-3.76507E-19
 -1         9 0.00000E+00 0.00000E+00 2.00010E-03 0.00000E+00-4.18795E-19-2.04593E-19
 -1        10 0.00000E+00 0.00000E+00 2.00010E-03 0.00000E+00 4.40404E-19 3.85247E-19
 -1        11 0.00000E+00 0.00000E+00 2.00010E-03 0.00000E+00 2.54597E-19 2.23763E-19
 -1        12 0.00000E+00 0.00000E+00 2.00010E-03 0.00000E+00 2.42075E-19 1.71784E-19
 -1        13 0.00000E+00 0.00000E+00 2.00010E-03 0.00000E+00-1.72104E-19-2.53389E-20
 -1        14 0.00000E+00 0.00000E+00 2.00010E-03 0.00000E+00 4.10158E-19 8.94127E-20
 -1        15 0.00000E+00 0.00000E+00 2.00010E-03 0.00000E+00-1.16356E-18 2.49269E-19
 -1        16 0.00000E+00 0.00000E+00 2.00010E-03 0.00000E+00 4.45153E-19 4.17991E-19
 -1        17 0.00000E+00 0.00000E+00 2.00010E-03 0.00000E+00-4.86716E-20 2.27507E-19
 -1        18 0.00000E+00 0.00000E+00 2.00010E-03 0.00000E+00 6.09490E-19-7.85158E-19
 -1        19 0.00000E+00 0.00000E+00 2.00010E-03 0.00000E+00 5.23083E-19-1.12112E-19
 -1        20 0.00000E+00 0.00000E+00 2.00010E-03 0.00000E+00 2.30452E-19 4.46960E-19
 -3
    1PSTEP                       514         103           1          
  100CL  203 170215.7561          20                     0  103           1
 -4  FORC        4    1
 -5  F1          1    2    1    0
 -5  F2          1    2    2    0
 -5  F3          1    2    3    0
 -5  ALL         1    2    0    0    1ALL
 -1         1-1.47932E+01-1.47932E+01 2.04136E+01
 -1         2-1.47932E+01 1.47932E+01 2.04136E+01
 -1         3-1.47932E+01 1.47932E+01-2.04136E+01
 -1         4-1.47932E+01-1.47932E+01-2.04136E+01
 -1         5 1.47932E+01-1.47932E+01 2.04136E+01
 -1         6 1.47932E+01 1.47932E+01 2.04136E+01
 -1         7 1.47932E+01 1.47932E+01-2.04136E+01
 -1         8 1.47932E+01-1.47932E+01-2.04136E+01
 -1         9 5.91729E+01-7.57248E-15-8.16542E+01
 -1        10 5.91729E+01-5.91729E+01 8.88178E-15
 -1        11 5.91729E+01 7.57248E-15 8.16542E+01
 -1        12 5.91729E+01 5.91729E+01 2.59237E-14
 -1        13-1.42268E-14 5.91729E+01-8.16542E+01
 -1        14 1.83045E-14-5.91729E+01-8.16542E+01
 -1        15 5.45423E-15-5.91729E+01 8.16542E+01
 -1        16 1.58971E-17 5.91729E+01 8.16542E+01
 -1        17-5.91729E+01 3.37193E-15-8.16542E+01
 -1        18-5.91729E+01-5.91729E+01 3.55271E-15
 -1        19-5.91729E+01 5.50985E-15 8.16542E+01
 -1        20-5.91729E+01 5.91729E+01 9.10383E-15
 -3
    1PSTEP                       515         103           1          
  100CL  203 170215.7561          20                     0  103           1
 -4  ERROR       1    1
 -5  STR(%)      1    1    0    0
 -1         1 3.20472E-14
 -1         2 3.20472E-14
 -1         3 3.20472E-14
 -1         4 3.20472E-14
 -1         5 3.20472E-14
 -1         6 3.20472E-14
 -1         7 3.20472E-14
 -1         8 3.20472E-14
 -1         9 3.20472E-14
 -1        10 3.20472E-14
 -1        11 3.20472E-14
 -1        12 3.20472E-14
 -1        13 3.20472E-14
 -1        14 3.20472E-14
 -1        15 3.20472E-14
 -1        16 3.20472E-14
 -1        17 3.20472E-14
 -1        18 3.20472E-14
 -1        19 3.20472E-14
 -1        20 3.20472E-14
 -3
    1PSTEP                       516         104           1          
  100CL  204 173081.2141          20                     0  104           1
 -4  DISP        4    1
 -5  D1          1    2    1    0
 -5  D2          1    2    2    0
 -5  D3          1    2    3    0
 -5  ALL         1    2    0    0    1ALL
 -1         1 0.00000E+00 0.00000E+00 0.00000E+00
 -1         2 0.00000E+00 0.00000E+00 0.00000E+00
 -1         3 0.00000E+00 0.00000E+00 2.00000E-03
 -1         4 0.00000E+00 0.00000E+00 2.00000E-03
 -1         5 0.00000E+00 0.00000E+00 0.00000E+00
 -1         6 0.00000E+00 0.00000E+00 0.00000E+00
 -1         7 0.00000E+00 0.00000E+00 2.00000E-03
 -1         8 0.00000E+00 0.00000E+00 2.00000E-03
 -1         9 0.00000E+00 0.00000E+00 0.00000E+00
 -1        10 0.00000E+00 0.00000E+00 1.00000E-03
 -1        11 0.00000E+00 0.00000E+00 2.00000E-03
 -1        12 0.00000E+00 0.00000E+00 1.00000E-03
 -1        13 0.00000E+00 0.00000E+00 0.00000E+00
 -1        14 0.00000E+00 0.00000E+00 0.00000E+00
 -1        15 0.00000E+00 0.00000E+00 2.00000E-03
 -1        16 0.00000E+00 0.00000E+00 2.00000E-03
 -1        17 0.00000E+00 0.00000E+00 0.00000E+00
 -1        18 0.00000E+00 0.00000E+00 1.00000E-03
 -1        19 0.00000E+00 0.00000E+00 2.00000E-03
 -1        20 0.00000E+00 0.00000E+00 1.00000E-03
 -3
    1PSTEP                       517         104           1          
  100CL  204 173081.2141          20                     0  104           1
 -4  STRESS      6    1
 -5  SXX         1    4    1    1
 -5  SYY         1    4    2    2
 -5  SZZ         1    4    3    3
 -5  SXY         1    4    1    2
 -5  SYZ         1    4    2    3
 -5  SZX         1    4    3    1
 -1         1 1.77768E+02 1.77768E+02 2.44441E+02 0.00000E+00 1.37535E-14 2.39722E-14
 -1         2 1.77768E+02 1.77768E+02 2.44441E+02 0.00000E+00-2.16310E-14-2.69601E-14
 -1         3 1.77768E+02 1.77768E+02 2.44441E+02 0.00000E+00-3.36426E-15-3.99557E-14
 -1         4 1.77768E+02 1.77768E+02 2.44441E+02 0.00000E+00-7.69651E-15 5.87195E-14
 -1         5 1.77768E+02 1.77768E+02 2.44441E+02 0.00000E+00 9.87334E-15-8.44199E-15
 -1         6 1.77768E+02 1.77768E+02 2.44441E+02 0.00000E+00-7.12954E-15 2.88977E-16
 -1         7 1.77768E+02 1.77768E+02 2.44441E+02 0.00000E+00 6.44185E-14 4.71095E-14
 -1         8 1.77768E+02 1.77768E+02 2.44441E+02 0.00000E+00-9.78449E-17-1.25520E-14
 -1         9 1.77784E+02 1.77784E+02 2.44463E+02 0.00000E+00-1.39618E-14-6.82072E-15
 -1        10 1.77784E+02 1.77784E+02 2.44463E+02 0.00000E+00 1.46822E-14 1.28434E-14
 -1        11 1.77784E+02 1.77784E+02 2.44463E+02 0.00000E+00 8.48774E-15 7.45983E-15
 -1        12 1.77784E+02 1.77784E+02 2.44463E+02 0.00000E+00 8.07029E-15 5.72695E-15
 -1        13 1.77784E+02 1.77784E+02 2.44463E+02 0.00000E+00-5.73761E-15-8.44750E-16
 -1        14 1.77784E+02 1.77784E+02 2.44463E+02 0.00000E+00 1.36739E-14 2.98084E-15
 -1        15 1.77784E+02 1.77784E+02 2.44463E+02 0.00000E+00-3.87909E-14 8.31013E-15
 -1        16 1.77784E+02 1.77784E+02 2.44463E+02 0.00000E+00 1.48405E-14 1.39350E-14
 -1        17 1.77784E+02 1.77784E+02 2.44463E+02 0.00000E+00-1.62261E-15 7.58463E-15
 -1        18 1.77784E+02 1.77784E+02 2.44463E+02 0.00000E+00 2.03192E-14-2.61756E-14
 -1        19 1.77784E+02 1.77784E+02 2.44463E+02 0.00000E+00 1.74385E-14-3.73758E-15
 -1        20 1.77784E+02 1.77784E+02 2.44463E+02 0.00000E+00 7.68280E-15 1.49008E-14
 -3
    1PSTEP                       518         104           1          
  100CL  204 173081.2141          20                     0  104           1
 -4  TOSTRAIN    6    1
 -5  EXX         1    4    1    1
 -5  EYY         1    4    2    2
 -5  EZZ         1    4    3    3
 -5  EXY         1    4    1    2
 -5  EYZ         1    4    2    3
 -5  EZX         1    4    3    1
 -1         1 0.00000E+00 0.00000E+00 1.99992E-03 0.00000E+00 4.12546E-19 7.19066E-19
 -1         2 0.00000E+00 0.00000E+00 1.99992E-03 0.00000E+00-6.48839E-19-8.08690E-19
 -1         3 0.00000E+00 0.00000E+00 1.99992E-03 0.00000E+00-1.00914E-19-1.19850E-18
 -1         4 0.00000E+00 0.00000E+00 1.99992E-03 0.00000E+00-2.30863E-19 1.76134E-18
 -1         5 0.00000E+00 0.00000E+00 1.99992E-03 0.00000E+00 2.96159E-19-2.53224E-19
 -1         6 0.00000E+00 0.00000E+00 1.99992E-03 0.00000E+00-2.13856E-19 8.66809E-21
 -1         7 0.00000E+00 0.00000E+00 1.99992E-03 0.00000E+00 1.93228E-18 1.41309E-18
 -1         8 0.00000E+00 0.00000E+00 1.99992E-03 0.00000E+00-2.93494E-21-3.76507E-19
 -1         9 0.00000E+00 0.00000E+00 2.00010E-03 0.00000E+00-4.18795E-19-2.04593E-19
 -1        10 0.00000E+00 0.00000E+00 2.00010E-03 0.00000E+00 4.40404E-19 3.85247E-19
 -1        11 0.00000E+00 0.00000E+00 2.00010E-03 0.00000E+00 2.54597E-19 2.23763E-19
 -1        12 0.00000E+00 0.00000E+00 2.00010E-03 0.00000E+00 2.42075E-19 1.71784E-19
 -1        13 0.00000E+00 0.00000E+00 2.00010E-03 0.00000E+00-1.72104E-19-2.53389E-20
 -1        14 0.00000E+00 0.00000E+00 2.00010E-03 0.00000E+00 4.10158E-19 8.94127E-20
 -1        15 0.00000E+00 0.00000E+00 2.00010E-03 0.00000E+00-1.16356E-18 2.49269E-19
 -1        16 0.00000E+00 0.00000E+00 2.00010E-03 0.00000E+00 4.45153E-19 4.17991E-19
 -1        17 0.00000E+00 0.00000E+00 2.00010E-03 0.00000E+00-4.86716E-20 2.27507E-19
 -1        18 0.00000E+00 0.00000E+00 2.00010E-03 0.00000E+00 6.09490E-19-7.85158E-19
 -1        19 0.00000E+00 0.00000E+00 2.00010E-03 0.00000E+00 5.23083E-19-1.12112E-19
 -1        20 0.00000E+00 0.00000E+00 2.00010E-03 0.00000E+00 2.30452E-19 4.46960E-19
 -3
    1PSTEP                       519         104           1          
  100CL  204 173081.2141          20                     0  104           1
 -4  FORC        4    1
 -5  F1          1    2    1    0
 -5  F2          1    2    2    0
 -5  F3          1    2    3    0
 -5  ALL         1    2    0    0    1ALL
 -1         1-1.48146E+01-1.48146E+01 2.03709E+01
 -1         2-1.48146E+01 1.48146E+01 2.03709E+01
 -1         3-1.48146E+01 1.48146E+01-2.03709E+01
 -1         4-1.48146E+01-1.48146E+01-2.03709E+01
 -1         5 1.48146E+01-1.48146E+01 2.03709E+01
 -1         6 1.48146E+01 1.48146E+01 2.03709E+01
 -1         7 1.48146E+01 1.48146E+01-2.03709E+01
 -1         8 1.48146E+01-1.48146E+01-2.03709E+01
 -1         9 5.92582E+01-6.43424E-15-8.14836E+01
 -1        10 5.92582E+01-5.92582E+01 6.66134E-15
 -1        11 5.92582E+01 2.02110E-15 8.14836E+01
 -1        12 5.92582E+01 5.92582E+01 2.11775E-14
 -1        13-5.73336E-15 5.92582E+01-8.14836E+01
 -1        14 2.18587E-14-5.92582E+01-8.14836E+01
 -1        15-1.05344E-14-5.92582E+01 8.14836E+01
 -1        16-1.15306E-14 5.92582E+01 8.14836E+01
 -1        17-5.92582E+01 3.15194E-15-8.14836E+01
 -1        18-5.92582E+01-5.92582E+01-1.77636E-15
 -1        19-5.92582E+01 5.50780E-15 8.14836E+01
 -1        20-5.92582E+01 5.92582E+01 2.22045E-15
 -3
    1PSTEP                       520         104           1          
  100CL  204 173081.2141          20                     0  104           1
 -4  ERROR       1    1
 -5  STR(%)      1    1    0    0
 -1         1 5.94709E-15
 -1         2 5.94709E-15
 -1         3 5.94709E-15
 -1         4 5.94709E-15
 -1         5 5.94709E-15
 -1         6 5.94709E-15
 -1         7 5.94709E-15
 -1         8 5.94709E-15
 -1         9 5.94709E-15
 -1        10 5.94709E-15
 -1        11 5.94709E-15
 -1        12 5.94709E-15
 -1        13 5.94709E-15
 -1        14 5.94709E-15
 -1        15 5.94709E-15
 -1        16 5.94709E-15
 -1        17 5.94709E-15
 -1        18 5.94709E-15
 -1        19 5.94709E-15
 -1        20 5.94709E-15
 -3
    1PSTEP                       521         105           1          
  100CL  205 174948.7988          20                     0  105           1
 -4  DISP        4    1
 -5  D1          1    2    1    0
 -5  D2          1    2    2    0
 -5  D3          1    2    3    0
 -5  ALL         1    2    0    0    1ALL
 -1         1 0.00000E+00 0.00000E+00 0.00000E+00
 -1         2 0.00000E+00 0.00000E+00 0.00000E+00
 -1         3 0.00000E+00 0.00000E+00 2.00000E-03
 -1         4 0.00000E+00 0.00000E+00 2.00000E-03
 -1         5 0.00000E+00 0.00000E+00 0.00000E+00
 -1         6 0.00000E+00 0.00000E+00 0.00000E+00
 -1         7 0.00000E+00 0.00000E+00 2.00000E-03
 -1         8 0.00000E+00 0.00000E+00 2.00000E-03
 -1         9 0.00000E+00 0.00000E+00 0.00000E+00
 -1        10 0.00000E+00 0.00000E+00 1.00000E-03
 -1        11 0.00000E+00 0.00000E+00 2.00000E-03
 -1        12 0.00000E+00 0.00000E+00 1.00000E-03
 -1        13 0.00000E+00 0.00000E+00 0.00000E+00
 -1        14 0.00000E+00 0.00000E+00 0.00000E+00
 -1        15 0.00000E+00 0.00000E+00 2.00000E-03
 -1        16 0.00000E+00 0.00000E+00 2.00000E-03
 -1        17 0.00000E+00 0.00000E+00 0.00000E+00
 -1        18 0.00000E+00 0.00000E+00 1.00000E-03
 -1        19 0.00000E+00 0.00000E+00 2.00000E-03
 -1        20 0.00000E+00 0.00000E+00 1.00000E-03
 -3
    1PSTEP                       522         105           1          
  100CL  205 174948.7988          20                     0  105           1
 -4  STRESS      6    1
 -5  SXX         1    4    1    1
 -5  SYY         1    4    2    2
 -5  SZZ         1    4    3    3
 -5  SXY         1    4    1    2
 -5  SYZ         1    4    2    3
 -5  SZX         1    4    3    1
 -1         1 1.77933E+02 1.77933E+02 2.44110E+02 0.00000E+00 1.36510E-14 2.37936E-14
 -1         2 1.77933E+02 1.77933E+02 2.44110E+02 0.00000E+00-2.14698E-14-2.67592E-14
 -1         3 1.77933E+02 1.77933E+02 2.44110E+02 0.00000E+00-3.33920E-15-3.96580E-14
 -1         4 1.77933E+02 1.77933E+02 2.44110E+02 0.00000E+00-7.63916E-15 5.82820E-14
 -1         5 1.77933E+02 1.77933E+02 2.44110E+02 0.00000E+00 9.79978E-15-8.37909E-15
 -1         6 1.77933E+02 1.77933E+02 2.44110E+02 0.00000E+00-7.07642E-15 2.86824E-16
 -1         7 1.77933E+02 1.77933E+02 2.44110E+02 0.00000E+00 6.39385E-14 4.67585E-14
 -1         8 1.77933E+02 1.77933E+02 2.44110E+02 0.00000E+00-9.71159E-17-1.24585E-14
 -1         9 1.77949E+02 1.77949E+02 2.44132E+02 0.00000E+00-1.38578E-14-6.76990E-15
 -1        10 1.77949E+02 1.77949E+02 2.44132E+02 0.00000E+00 1.45728E-14 1.27477E-14
 -1        11 1.77949E+02 1.77949E+02 2.44132E+02 0.00000E+00 8.42450E-15 7.40424E-15
 -1        12 1.77949E+02 1.77949E+02 2.44132E+02 0.00000E+00 8.01016E-15 5.68428E-15
 -1        13 1.77949E+02 1.77949E+02 2.44132E+02 0.00000E+00-5.69486E-15-8.38456E-16
 -1        14 1.77949E+02 1.77949E+02 2.44132E+02 0.00000E+00 1.35720E-14 2.95863E-15
 -1        15 1.77949E+02 1.77949E+02 2.44132E+02 0.00000E+00-3.85019E-14 8.24821E-15
 -1        16 1.77949E+02 1.77949E+02 2.44132E+02 0.00000E+00 1.47299E-14 1.38312E-14
 -1        17 1.77949E+02 1.77949E+02 2.44132E+02 0.00000E+00-1.61052E-15 7.52812E-15
 -1        18 1.77949E+02 1.77949E+02 2.44132E+02 0.00000E+00 2.01678E-14-2.59806E-14
 -1        19 1.77949E+02 1.77949E+02 2.44132E+02 0.00000E+00 1.73086E-14-3.70973E-15
 -1        20 1.77949E+02 1.77949E+02 2.44132E+02 0.00000E+00 7.62556E-15 1.47897E-14
 -3
    1PSTEP                       523         105           1          
  100CL  205 174948.7988          20                     0  105           1
 -4  TOSTRAIN    6    1
 -5  EXX         1    4    1    1
 -5  EYY         1    4    2    2
 -5  EZZ         1    4    3    3
 -5  EXY         1    4    1    2
 -5  EYZ         1    4    2    3
 -5  EZX         1    4    3    1
 -1         1 0.00000E+00 0.00000E+00 1.99992E-03 0.00000E+00 4.12546E-19 7.19066E-19
 -1         2 0.00000E+00 0.00000E+00 1.99992E-03 0.00000E+00-6.48839E-19-8.08690E-19
 -1         3 0.00000E+00 0.00000E+00 1.99992E-03 0.00000E+00-1.00914E-19-1.19850E-18
 -1         4 0.00000E+00 0.00000E+00 1.99992E-03 0.00000E+00-2.30863E-19 1.76134E-18
 -1         5 0.00000E+00 0.00000E+00 1.99992E-03 0.00000E+00 2.96159E-19-2.53224E-19
 -1         6 0.00000E+00 0.00000E+00 1.99992E-03 0.00000E+00-2.13856E-19 8.66809E-21
 -1         7 0.00000E+00 0.00000E+00 1.99992E-03 0.00000E+00 1.93228E-18 1.41309E-18
 -1         8 0.00000E+00 0.00000E+00 1.99992E-03 0.00000E+00-2.93494E-21-3.76507E-19
 -1         9 0.00000E+00 0.00000E+00 2.00010E-03 0.00000E+00-4.18795E-19-2.04593E-19
 -1        10 0.00000E+00 0.00000E+00 2.00010E-03 0.00000E+00 4.40404E-19 3.85247E-19
 -1        11 0.00000E+00 0.00000E+00 2.00010E-03 0.00000E+00 2.54597E-19 2.23763E-19
 -1        12 0.00000E+00 0.00000E+00 2.00010E-03 0.00000E+00 2.42075E-19 1.71784E-19
 -1        13 0.00000E+00 0.00000E+00 2.00010E-03 0.00000E+00-1.72104E-19-2.53389E-20
 -1        14 0.00000E+00 0.00000E+00 2.00010E-03 0.00000E+00 4.10158E-19 8.94127E-20
 -1        15 0.00000E+00 0.00000E+00 2.00010E-03 0.00000E+00-1.16356E-18 2.49269E-19
 -1        16 0.00000E+00 0.00000E+00 2.00010E-03 0.00000E+00 4.45153E-19 4.17991E-19
 -1        17 0.00000E+00 0.00000E+00 2.00010E-03 0.00000E+00-4.86716E-20 2.27507E-19
 -1        18 0.00000E+00 0.00000E+00 2.00010E-03 0.00000E+00 6.09490E-19-7.85158E-19
 -1        19 0.00000E+00 0.00000E+00 2.00010E-03 0.00000E+00 5.23083E-19-1.12112E-19
 -1        20 0.00000E+00 0.00000E+00 2.00010E-03 0.00000E+00 2.30452E-19 4.46960E-19
 -3
    1PSTEP                       524         105           1          
  100CL  205 174948.7988          20                     0  105           1
 -4  FORC        4    1
 -5  F1          1    2    1    0
 -5  F2          1    2    2    0
 -5  F3          1    2    3    0
 -5  ALL         1    2    0    0    1ALL
 -1         1-1.48284E+01-1.48284E+01 2.03433E+01
 -1         2-1.48284E+01 1.48284E+01 2.03433E+01
 -1         3-1.48284E+01 1.48284E+01-2.03433E+01
 -1         4-1.48284E+01-1.48284E+01-2.03433E+01
 -1         5 1.48284E+01-1.48284E+01 2.03433E+01
 -1         6 1.48284E+01 1.48284E+01 2.03433E+01
 -1         7 1.48284E+01 1.48284E+01-2.03433E+01
 -1         8 1.48284E+01-1.48284E+01-2.03433E+01
 -1         9 5.93134E+01-1.17631E-14-8.13732E+01
 -1        10 5.93134E+01-5.93134E+01 1.44329E-14
 -1        11 5.93134E+01 5.57365E-15 8.13732E+01
 -1        12 5.93134E+01 5.93134E+01 2.23987E-14
 -1        13-1.68093E-15 5.93134E+01-8.13732E+01
 -1        14 7.20466E-15-5.93134E+01-8.13732E+01
 -1        15 1.07810E-14-5.93134E+01 8.13732E+01
 -1        16-2.64894E-15 5.93134E+01 8.13732E+01
 -1        17-5.93134E+01-1.77393E-16-8.13732E+01
 -1        18-5.93134E+01-5.93134E+01 0.00000E+00
 -1        19-5.93134E+01 1.95375E-15 8.13732E+01
 -1        20-5.93134E+01 5.93134E+01 2.44249E-15
 -3
    1PSTEP                       525         105           1          
  100CL  205 174948.7988          20                     0  105           1
 -4  ERROR       1    1
 -5  STR(%)      1    1    0    0
 -1         1 6.13381E-14
 -1         2 6.13381E-14
 -1         3 6.13381E-14
 -1         4 6.13381E-14
 -1         5 6.13381E-14
 -1         6 6.13381E-14
 -1         7 6.13381E-14
 -1         8 6.13381E-14
 -1         9 6.13381E-14
 -1        10 6.13381E-14
 -1        11 6.13381E-14
 -1        12 6.13381E-14
 -1        13 6.13381E-14
 -1        14 6.13381E-14
 -1        15 6.13381E-14
 -1        16 6.13381E-14
 -1        17 6.13381E-14
 -1        18 6.13381E-14
 -1        19 6.13381E-14
 -1        20 6.13381E-14
 -3
    1PSTEP                       526         106           1          
  100CL  206 176816.3834          20                     0  106           1
 -4  DISP        4    1
 -5  D1          1    2    1    0
 -5  D2          1    2    2    0
 -5  D3          1    2    3    0
 -5  ALL         1    2    0    0    1ALL
 -1         1 0.00000E+00 0.00000E+00 0.00000E+00
 -1         2 0.00000E+00 0.00000E+00 0.00000E+00
 -1         3 0.00000E+00 0.00000E+00 2.00000E-03
 -1         4 0.00000E+00 0.00000E+00 2.00000E-03
 -1         5 0.00000E+00 0.00000E+00 0.00000E+00
 -1         6 0.00000E+00 0.00000E+00 0.00000E+00
 -1         7 0.00000E+00 0.00000E+00 2.00000E-03
 -1         8 0.00000E+00 0.00000E+00 2.00000E-03
 -1         9 0.00000E+00 0.00000E+00 0.00000E+00
 -1        10 0.00000E+00 0.00000E+00 1.00000E-03
 -1        11 0.00000E+00 0.00000E+00 2.00000E-03
 -1        12 0.00000E+00 0.00000E+00 1.00000E-03
 -1        13 0.00000E+00 0.00000E+00 0.00000E+00
 -1        14 0.00000E+00 0.00000E+00 0.00000E+00
 -1        15 0.00000E+00 0.00000E+00 2.00000E-03
 -1        16 0.00000E+00 0.00000E+00 2.00000E-03
 -1        17 0.00000E+00 0.00000E+00 0.00000E+00
 -1        18 0.00000E+00 0.00000E+00 1.00000E-03
 -1        19 0.00000E+00 0.00000E+00 2.00000E-03
 -1        20 0.00000E+00 0.00000E+00 1.00000E-03
 -3
    1PSTEP                       527         106           1          
  100CL  206 176816.3834          20                     0  106           1
 -4  STRESS      6    1
 -5  SXX         1    4    1    1
 -5  SYY         1    4    2    2
 -5  SZZ         1    4    3    3
 -5  SXY         1    4    1    2
 -5  SYZ         1    4    2    3
 -5  SZX         1    4    3    1
 -1         1 1.78097E+02 1.78097E+02 2.43781E+02 0.00000E+00 1.35493E-14 2.36163E-14
 -1         2 1.78097E+02 1.78097E+02 2.43781E+02 0.00000E+00-2.13099E-14-2.65599E-14
 -1         3 1.78097E+02 1.78097E+02 2.43781E+02 0.00000E+00-3.31432E-15-3.93625E-14
 -1         4 1.78097E+02 1.78097E+02 2.43781E+02 0.00000E+00-7.58225E-15 5.78477E-14
 -1         5 1.78097E+02 1.78097E+02 2.43781E+02 0.00000E+00 9.72676E-15-8.31666E-15
 -1         6 1.78097E+02 1.78097E+02 2.43781E+02 0.00000E+00-7.02370E-15 2.84687E-16
 -1         7 1.78097E+02 1.78097E+02 2.43781E+02 0.00000E+00 6.34621E-14 4.64101E-14
 -1         8 1.78097E+02 1.78097E+02 2.43781E+02 0.00000E+00-9.63923E-17-1.23656E-14
 -1         9 1.78114E+02 1.78114E+02 2.43803E+02 0.00000E+00-1.37545E-14-6.71946E-15
 -1        10 1.78114E+02 1.78114E+02 2.43803E+02 0.00000E+00 1.44642E-14 1.26527E-14
 -1        11 1.78114E+02 1.78114E+02 2.43803E+02 0.00000E+00 8.36174E-15 7.34908E-15
 -1        12 1.78114E+02 1.78114E+02 2.43803E+02 0.00000E+00 7.95048E-15 5.64193E-15
 -1        13 1.78114E+02 1.78114E+02 2.43803E+02 0.00000E+00-5.65243E-15-8.32209E-16
 -1        14 1.78114E+02 1.78114E+02 2.43803E+02 0.00000E+00 1.34709E-14 2.93659E-15
 -1        15 1.78114E+02 1.78114E+02 2.43803E+02 0.00000E+00-3.82151E-14 8.18676E-15
 -1        16 1.78114E+02 1.78114E+02 2.43803E+02 0.00000E+00 1.46202E-14 1.37281E-14
 -1        17 1.78114E+02 1.78114E+02 2.43803E+02 0.00000E+00-1.59853E-15 7.47203E-15
 -1        18 1.78114E+02 1.78114E+02 2.43803E+02 0.00000E+00 2.00175E-14-2.57870E-14
 -1        19 1.78114E+02 1.78114E+02 2.43803E+02 0.00000E+00 1.71797E-14-3.68209E-15
 -1        20 1.78114E+02 1.78114E+02 2.43803E+02 0.00000E+00 7.56874E-15 1.46795E-14
 -3
    1PSTEP                       528         106           1          
  100CL  206 176816.3834          20                     0  106           1
 -4  TOSTRAIN    6    1
 -5  EXX         1    4    1    1
 -5  EYY         1    4    2    2
 -5  EZZ         1    4    3    3
 -5  EXY         1    4    1    2
 -5  EYZ         1    4    2    3
 -5  EZX         1    4    3    1
 -1         1 0.00000E+00 0.00000E+00 1.99992E-03 0.00000E+00 4.12546E-19 7.19066E-19
 -1         2 0.00000E+00 0.00000E+00 1.99992E-03 0.00000E+00-6.48839E-19-8.08690E-19
 -1         3 0.00000E+00 0.00000E+00 1.99992E-03 0.00000E+00-1.00914E-19-1.19850E-18
 -1         4 0.00000E+00 0.00000E+00 1.99992E-03 0.00000E+00-2.30863E-19 1.76134E-18
 -1         5 0.00000E+00 0.00000E+00 1.99992E-03 0.00000E+00 2.96159E-19-2.53224E-19
 -1         6 0.00000E+00 0.00000E+00 1.99992E-03 0.00000E+00-2.13856E-19 8.66809E-21
 -1         7 0.00000E+00 0.00000E+00 1.99992E-03 0.00000E+00 1.93228E-18 1.41309E-18
 -1         8 0.00000E+00 0.00000E+00 1.99992E-03 0.00000E+00-2.93494E-21-3.76507E-19
 -1         9 0.00000E+00 0.00000E+00 2.00010E-03 0.00000E+00-4.18795E-19-2.04593E-19
 -1        10 0.00000E+00 0.00000E+00 2.00010E-03 0.00000E+00 4.40404E-19 3.85247E-19
 -1        11 0.00000E+00 0.00000E+00 2.00010E-03 0.00000E+00 2.54597E-19 2.23763E-19
 -1        12 0.00000E+00 0.00000E+00 2.00010E-03 0.00000E+00 2.42075E-19 1.71784E-19
 -1        13 0.00000E+00 0.00000E+00 2.00010E-03 0.00000E+00-1.72104E-19-2.53389E-20
 -1        14 0.00000E+00 0.00000E+00 2.00010E-03 0.00000E+00 4.10158E-19 8.94127E-20
 -1        15 0.00000E+00 0.00000E+00 2.00010E-03 0.00000E+00-1.16356E-18 2.49269E-19
 -1        16 0.00000E+00 0.00000E+00 2.00010E-03 0.00000E+00 4.45153E-19 4.17991E-19
 -1        17 0.00000E+00 0.00000E+00 2.00010E-03 0.00000E+00-4.86716E-20 2.27507E-19
 -1        18 0.00000E+00 0.00000E+00 2.00010E-03 0.00000E+00 6.09490E-19-7.85158E-19
 -1        19 0.00000E+00 0.00000E+00 2.00010E-03 0.00000E+00 5.23083E-19-1.12112E-19
 -1        20 0.00000E+00 0.00000E+00 2.00010E-03 0.00000E+00 2.30452E-19 4.46960E-19
 -3
    1PSTEP                       529         106           1          
  100CL  206 176816.3834          20                     0  106           1
 -4  FORC        4    1
 -5  F1          1    2    1    0
 -5  F2          1    2    2    0
 -5  F3          1    2    3    0
 -5  ALL         1    2    0    0    1ALL
 -1         1-1.48421E+01-1.48421E+01 2.03159E+01
 -1         2-1.48421E+01 1.48421E+01 2.03159E+01
 -1         3-1.48421E+01 1.48421E+01-2.03159E+01
 -1         4-1.48421E+01-1.48421E+01-2.03159E+01
 -1         5 1.48421E+01-1.48421E+01 2.03159E+01
 -1         6 1.48421E+01 1.48421E+01 2.03159E+01
 -1         7 1.48421E+01 1.48421E+01-2.03159E+01
 -1         8 1.48421E+01-1.48421E+01-2.03159E+01
 -1         9 5.93682E+01-7.54413E-15-8.12636E+01
 -1        10 5.93682E+01-5.93682E+01 6.21725E-15
 -1        11 5.93682E+01 3.79712E-15 8.12636E+01
 -1        12 5.93682E+01 5.93682E+01 1.60150E-14
 -1        13-5.31680E-15 5.93682E+01-8.12636E+01
 -1        14 1.67535E-14-5.93682E+01-8.12636E+01
 -1        15 1.89825E-15-5.93682E+01 8.12636E+01
 -1        16-3.98132E-15 5.93682E+01 8.12636E+01
 -1        17-5.93682E+01 3.37664E-15-8.12636E+01
 -1        18-5.93682E+01-5.93682E+01 1.06581E-14
 -1        19-5.93682E+01 3.72879E-15 8.12636E+01
 -1        20-5.93682E+01 5.93682E+01 6.66134E-15
 -3
    1PSTEP                       530         106           1          
  100CL  206 176816.3834          20                     0  106           1
 -4  ERROR       1    1
 -5  STR(%)      1    1    0    0
 -1         1 2.26601E-14
 -1         2 2.26601E-14
 -1         3 2.26601E-14
 -1         4 2.26601E-14
 -1         5 2.26601E-14
 -1         6 2.26601E-14
 -1         7 2.26601E-14
 -1         8 2.26601E-14
 -1         9 2.26601E-14
 -1        10 2.26601E-14
 -1        11 2.26601E-14
 -1        12 2.26601E-14
 -1        13 2.26601E-14
 -1        14 2.26601E-14
 -1        15 2.26601E-14
 -1        16 2.26601E-14
 -1        17 2.26601E-14
 -1        18 2.26601E-14
 -1        19 2.26601E-14
 -1        20 2.26601E-14
 -3
    1PSTEP                       531         107           1          
  100CL  207 179617.7605          20                     0  107           1
 -4  DISP        4    1
 -5  D1          1    2    1    0
 -5  D2          1    2    2    0
 -5  D3          1    2    3    0
 -5  ALL         1    2    0    0    1ALL
 -1         1 0.00000E+00 0.00000E+00 0.00000E+00
 -1         2 0.00000E+00 0.00000E+00 0.00000E+00
 -1         3 0.00000E+00 0.00000E+00 2.00000E-03
 -1         4 0.00000E+00 0.00000E+00 2.00000E-03
 -1         5 0.00000E+00 0.00000E+00 0.00000E+00
 -1         6 0.00000E+00 0.00000E+00 0.00000E+00
 -1         7 0.00000E+00 0.00000E+00 2.00000E-03
 -1         8 0.00000E+00 0.00000E+00 2.00000E-03
 -1         9 0.00000E+00 0.00000E+00 0.00000E+00
 -1        10 0.00000E+00 0.00000E+00 1.00000E-03
 -1        11 0.00000E+00 0.00000E+00 2.00000E-03
 -1        12 0.00000E+00 0.00000E+00 1.00000E-03
 -1        13 0.00000E+00 0.00000E+00 0.00000E+00
 -1        14 0.00000E+00 0.00000E+00 0.00000E+00
 -1        15 0.00000E+00 0.00000E+00 2.00000E-03
 -1        16 0.00000E+00 0.00000E+00 2.00000E-03
 -1        17 0.00000E+00 0.00000E+00 0.00000E+00
 -1        18 0.00000E+00 0.00000E+00 1.00000E-03
 -1        19 0.00000E+00 0.00000E+00 2.00000E-03
 -1        20 0.00000E+00 0.00000E+00 1.00000E-03
 -3
    1PSTEP                       532         107           1          
  100CL  207 179617.7605          20                     0  107           1
 -4  STRESS      6    1
 -5  SXX         1    4    1    1
 -5  SYY         1    4    2    2
 -5  SZZ         1    4    3    3
 -5  SXY         1    4    1    2
 -5  SYZ         1    4    2    3
 -5  SZX         1    4    3    1
 -1         1 1.78341E+02 1.78341E+02 2.43293E+02 0.00000E+00 1.33984E-14 2.33534E-14
 -1         2 1.78341E+02 1.78341E+02 2.43293E+02 0.00000E+00-2.10726E-14-2.62641E-14
 -1         3 1.78341E+02 1.78341E+02 2.43293E+02 0.00000E+00-3.27741E-15-3.89242E-14
 -1         4 1.78341E+02 1.78341E+02 2.43293E+02 0.00000E+00-7.49782E-15 5.72036E-14
 -1         5 1.78341E+02 1.78341E+02 2.43293E+02 0.00000E+00 9.61846E-15-8.22406E-15
 -1         6 1.78341E+02 1.78341E+02 2.43293E+02 0.00000E+00-6.94549E-15 2.81517E-16
 -1         7 1.78341E+02 1.78341E+02 2.43293E+02 0.00000E+00 6.27555E-14 4.58933E-14
 -1         8 1.78341E+02 1.78341E+02 2.43293E+02 0.00000E+00-9.53191E-17-1.22280E-14
 -1         9 1.78357E+02 1.78357E+02 2.43315E+02 0.00000E+00-1.36014E-14-6.64465E-15
 -1        10 1.78357E+02 1.78357E+02 2.43315E+02 0.00000E+00 1.43032E-14 1.25118E-14
 -1        11 1.78357E+02 1.78357E+02 2.43315E+02 0.00000E+00 8.26863E-15 7.26725E-15
 -1        12 1.78357E+02 1.78357E+02 2.43315E+02 0.00000E+00 7.86195E-15 5.57911E-15
 -1        13 1.78357E+02 1.78357E+02 2.43315E+02 0.00000E+00-5.58949E-15-8.22943E-16
 -1        14 1.78357E+02 1.78357E+02 2.43315E+02 0.00000E+00 1.33209E-14 2.90389E-15
 -1        15 1.78357E+02 1.78357E+02 2.43315E+02 0.00000E+00-3.77896E-14 8.09560E-15
 -1        16 1.78357E+02 1.78357E+02 2.43315E+02 0.00000E+00 1.44574E-14 1.35753E-14
 -1        17 1.78357E+02 1.78357E+02 2.43315E+02 0.00000E+00-1.58073E-15 7.38883E-15
 -1        18 1.78357E+02 1.78357E+02 2.43315E+02 0.00000E+00 1.97947E-14-2.54999E-14
 -1        19 1.78357E+02 1.78357E+02 2.43315E+02 0.00000E+00 1.69884E-14-3.64109E-15
 -1        20 1.78357E+02 1.78357E+02 2.43315E+02 0.00000E+00 7.48447E-15 1.45161E-14
 -3
    1PSTEP                       533         107           1          
  100CL  207 179617.7605          20                     0  107           1
 -4  TOSTRAIN    6    1
 -5  EXX         1    4    1    1
 -5  EYY         1    4    2    2
 -5  EZZ         1    4    3    3
 -5  EXY         1    4    1    2
 -5  EYZ         1    4    2    3
 -5  EZX         1    4    3    1
 -1         1 0.00000E+00 0.00000E+00 1.99992E-03 0.00000E+00 4.12546E-19 7.19066E-19
 -1         2 0.00000E+00 0.00000E+00 1.99992E-03 0.00000E+00-6.48839E-19-8.08690E-19
 -1         3 0.00000E+00 0.00000E+00 1.99992E-03 0.00000E+00-1.00914E-19-1.19850E-18
 -1         4 0.00000E+00 0.00000E+00 1.99992E-03 0.00000E+00-2.30863E-19 1.76134E-18
 -1         5 0.00000E+00 0.00000E+00 1.99992E-03 0.00000E+00 2.96159E-19-2.53224E-19
 -1         6 0.00000E+00 0.00000E+00 1.99992E-03 0.00000E+00-2.13856E-19 8.66809E-21
 -1         7 0.00000E+00 0.00000E+00 1.99992E-03 0.00000E+00 1.93228E-18 1.41309E-18
 -1         8 0.00000E+00 0.00000E+00 1.99992E-03 0.00000E+00-2.93494E-21-3.76507E-19
 -1         9 0.00000E+00 0.00000E+00 2.00010E-03 0.00000E+00-4.18795E-19-2.04593E-19
 -1        10 0.00000E+00 0.00000E+00 2.00010E-03 0.00000E+00 4.40404E-19 3.85247E-19
 -1        11 0.00000E+00 0.00000E+00 2.00010E-03 0.00000E+00 2.54597E-19 2.23763E-19
 -1        12 0.00000E+00 0.00000E+00 2.00010E-03 0.00000E+00 2.42075E-19 1.71784E-19
 -1        13 0.00000E+00 0.00000E+00 2.00010E-03 0.00000E+00-1.72104E-19-2.53389E-20
 -1        14 0.00000E+00 0.00000E+00 2.00010E-03 0.00000E+00 4.10158E-19 8.94127E-20
 -1        15 0.00000E+00 0.00000E+00 2.00010E-03 0.00000E+00-1.16356E-18 2.49269E-19
 -1        16 0.00000E+00 0.00000E+00 2.00010E-03 0.00000E+00 4.45153E-19 4.17991E-19
 -1        17 0.00000E+00 0.00000E+00 2.00010E-03 0.00000E+00-4.86716E-20 2.27507E-19
 -1        18 0.00000E+00 0.00000E+00 2.00010E-03 0.00000E+00 6.09490E-19-7.85158E-19
 -1        19 0.00000E+00 0.00000E+00 2.00010E-03 0.00000E+00 5.23083E-19-1.12112E-19
 -1        20 0.00000E+00 0.00000E+00 2.00010E-03 0.00000E+00 2.30452E-19 4.46960E-19
 -3
    1PSTEP                       534         107           1          
  100CL  207 179617.7605          20                     0  107           1
 -4  FORC        4    1
 -5  F1          1    2    1    0
 -5  F2          1    2    2    0
 -5  F3          1    2    3    0
 -5  ALL         1    2    0    0    1ALL
 -1         1-1.48624E+01-1.48624E+01 2.02753E+01
 -1         2-1.48624E+01 1.48624E+01 2.02753E+01
 -1         3-1.48624E+01 1.48624E+01-2.02753E+01
 -1         4-1.48624E+01-1.48624E+01-2.02753E+01
 -1         5 1.48624E+01-1.48624E+01 2.02753E+01
 -1         6 1.48624E+01 1.48624E+01 2.02753E+01
 -1         7 1.48624E+01 1.48624E+01-2.02753E+01
 -1         8 1.48624E+01-1.48624E+01-2.02753E+01
 -1         9 5.94495E+01-1.17627E-14-8.11011E+01
 -1        10 5.94495E+01-5.94495E+01 2.44249E-15
 -1        11 5.94495E+01 2.02052E-15 8.11011E+01
 -1        12 5.94495E+01 5.94495E+01 1.30174E-14
 -1        13 8.61667E-15 5.94495E+01-8.11011E+01
 -1        14 2.29721E-14-5.94495E+01-8.11011E+01
 -1        15 9.00232E-15-5.94495E+01 8.11011E+01
 -1        16 1.56962E-15 5.94495E+01 8.11011E+01
 -1        17-5.94495E+01-1.74111E-16-8.11011E+01
 -1        18-5.94495E+01-5.94495E+01 1.77636E-15
 -1        19-5.94495E+01 1.74111E-16 8.11011E+01
 -1        20-5.94495E+01 5.94495E+01-6.88338E-15
 -3
    1PSTEP                       535         107           1          
  100CL  207 179617.7605          20                     0  107           1
 -4  ERROR       1    1
 -5  STR(%)      1    1    0    0
 -1         1 2.15105E-14
 -1         2 2.15105E-14
 -1         3 2.15105E-14
 -1         4 2.15105E-14
 -1         5 2.15105E-14
 -1         6 2.15105E-14
 -1         7 2.15105E-14
 -1         8 2.15105E-14
 -1         9 2.15105E-14
 -1        10 2.15105E-14
 -1        11 2.15105E-14
 -1        12 2.15105E-14
 -1        13 2.15105E-14
 -1        14 2.15105E-14
 -1        15 2.15105E-14
 -1        16 2.15105E-14
 -1        17 2.15105E-14
 -1        18 2.15105E-14
 -1        19 2.15105E-14
 -1        20 2.15105E-14
 -3
    1PSTEP                       536         108           1          
  100CL  208 181577.9422          20                     0  108           1
 -4  DISP        4    1
 -5  D1          1    2    1    0
 -5  D2          1    2    2    0
 -5  D3          1    2    3    0
 -5  ALL         1    2    0    0    1ALL
 -1         1 0.00000E+00 0.00000E+00 0.00000E+00
 -1         2 0.00000E+00 0.00000E+00 0.00000E+00
 -1         3 0.00000E+00 0.00000E+00 2.00000E-03
 -1         4 0.00000E+00 0.00000E+00 2.00000E-03
 -1         5 0.00000E+00 0.00000E+00 0.00000E+00
 -1         6 0.00000E+00 0.00000E+00 0.00000E+00
 -1         7 0.00000E+00 0.00000E+00 2.00000E-03
 -1         8 0.00000E+00 0.00000E+00 2.00000E-03
 -1         9 0.00000E+00 0.00000E+00 0.00000E+00
 -1        10 0.00000E+00 0.00000E+00 1.00000E-03
 -1        11 0.00000E+00 0.00000E+00 2.00000E-03
 -1        12 0.00000E+00 0.00000E+00 1.00000E-03
 -1        13 0.00000E+00 0.00000E+00 0.00000E+00
 -1        14 0.00000E+00 0.00000E+00 0.00000E+00
 -1        15 0.00000E+00 0.00000E+00 2.00000E-03
 -1        16 0.00000E+00 0.00000E+00 2.00000E-03
 -1        17 0.00000E+00 0.00000E+00 0.00000E+00
 -1        18 0.00000E+00 0.00000E+00 1.00000E-03
 -1        19 0.00000E+00 0.00000E+00 2.00000E-03
 -1        20 0.00000E+00 0.00000E+00 1.00000E-03
 -3
    1PSTEP                       537         108           1          
  100CL  208 181577.9422          20                     0  108           1
 -4  STRESS      6    1
 -5  SXX         1    4    1    1
 -5  SYY         1    4    2    2
 -5  SZZ         1    4    3    3
 -5  SXY         1    4    1    2
 -5  SYZ         1    4    2    3
 -5  SZX         1    4    3    1
 -1         1 1.78511E+02 1.78511E+02 2.42955E+02 0.00000E+00 1.32937E-14 2.31708E-14
 -1         2 1.78511E+02 1.78511E+02 2.42955E+02 0.00000E+00-2.09079E-14-2.60588E-14
 -1         3 1.78511E+02 1.78511E+02 2.42955E+02 0.00000E+00-3.25179E-15-3.86199E-14
 -1         4 1.78511E+02 1.78511E+02 2.42955E+02 0.00000E+00-7.43921E-15 5.67565E-14
 -1         5 1.78511E+02 1.78511E+02 2.42955E+02 0.00000E+00 9.54327E-15-8.15977E-15
 -1         6 1.78511E+02 1.78511E+02 2.42955E+02 0.00000E+00-6.89120E-15 2.79316E-16
 -1         7 1.78511E+02 1.78511E+02 2.42955E+02 0.00000E+00 6.22649E-14 4.55346E-14
 -1         8 1.78511E+02 1.78511E+02 2.42955E+02 0.00000E+00-9.45739E-17-1.21324E-14
 -1         9 1.78527E+02 1.78527E+02 2.42977E+02 0.00000E+00-1.34951E-14-6.59270E-15
 -1        10 1.78527E+02 1.78527E+02 2.42977E+02 0.00000E+00 1.41914E-14 1.24140E-14
 -1        11 1.78527E+02 1.78527E+02 2.42977E+02 0.00000E+00 8.20400E-15 7.21044E-15
 -1        12 1.78527E+02 1.78527E+02 2.42977E+02 0.00000E+00 7.80049E-15 5.53550E-15
 -1        13 1.78527E+02 1.78527E+02 2.42977E+02 0.00000E+00-5.54580E-15-8.16510E-16
 -1        14 1.78527E+02 1.78527E+02 2.42977E+02 0.00000E+00 1.32167E-14 2.88119E-15
 -1        15 1.78527E+02 1.78527E+02 2.42977E+02 0.00000E+00-3.74942E-14 8.03232E-15
 -1        16 1.78527E+02 1.78527E+02 2.42977E+02 0.00000E+00 1.43444E-14 1.34691E-14
 -1        17 1.78527E+02 1.78527E+02 2.42977E+02 0.00000E+00-1.56837E-15 7.33107E-15
 -1        18 1.78527E+02 1.78527E+02 2.42977E+02 0.00000E+00 1.96399E-14-2.53006E-14
 -1        19 1.78527E+02 1.78527E+02 2.42977E+02 0.00000E+00 1.68556E-14-3.61263E-15
 -1        20 1.78527E+02 1.78527E+02 2.42977E+02 0.00000E+00 7.42596E-15 1.44026E-14
 -3
    1PSTEP                       538         108           1          
  100CL  208 181577.9422          20                     0  108           1
 -4  TOSTRAIN    6    1
 -5  EXX         1    4    1    1
 -5  EYY         1    4    2    2
 -5  EZZ         1    4    3    3
 -5  EXY         1    4    1    2
 -5  EYZ         1    4    2    3
 -5  EZX         1    4    3    1
 -1         1 0.00000E+00 0.00000E+00 1.99992E-03 0.00000E+00 4.12546E-19 7.19066E-19
 -1         2 0.00000E+00 0.00000E+00 1.99992E-03 0.00000E+00-6.48839E-19-8.08690E-19
 -1         3 0.00000E+00 0.00000E+00 1.99992E-03 0.00000E+00-1.00914E-19-1.19850E-18
 -1         4 0.00000E+00 0.00000E+00 1.99992E-03 0.00000E+00-2.30863E-19 1.76134E-18
 -1         5 0.00000E+00 0.00000E+00 1.99992E-03 0.00000E+00 2.96159E-19-2.53224E-19
 -1         6 0.00000E+00 0.00000E+00 1.99992E-03 0.00000E+00-2.13856E-19 8.66809E-21
 -1         7 0.00000E+00 0.00000E+00 1.99992E-03 0.00000E+00 1.93228E-18 1.41309E-18
 -1         8 0.00000E+00 0.00000E+00 1.99992E-03 0.00000E+00-2.93494E-21-3.76507E-19
 -1         9 0.00000E+00 0.00000E+00 2.00010E-03 0.00000E+00-4.18795E-19-2.04593E-19
 -1        10 0.00000E+00 0.00000E+00 2.00010E-03 0.00000E+00 4.40404E-19 3.85247E-19
 -1        11 0.00000E+00 0.00000E+00 2.00010E-03 0.00000E+00 2.54597E-19 2.23763E-19
 -1        12 0.00000E+00 0.00000E+00 2.00010E-03 0.00000E+00 2.42075E-19 1.71784E-19
 -1        13 0.00000E+00 0.00000E+00 2.00010E-03 0.00000E+00-1.72104E-19-2.53389E-20
 -1        14 0.00000E+00 0.00000E+00 2.00010E-03 0.00000E+00 4.10158E-19 8.94127E-20
 -1        15 0.00000E+00 0.00000E+00 2.00010E-03 0.00000E+00-1.16356E-18 2.49269E-19
 -1        16 0.00000E+00 0.00000E+00 2.00010E-03 0.00000E+00 4.45153E-19 4.17991E-19
 -1        17 0.00000E+00 0.00000E+00 2.00010E-03 0.00000E+00-4.86716E-20 2.27507E-19
 -1        18 0.00000E+00 0.00000E+00 2.00010E-03 0.00000E+00 6.09490E-19-7.85158E-19
 -1        19 0.00000E+00 0.00000E+00 2.00010E-03 0.00000E+00 5.23083E-19-1.12112E-19
 -1        20 0.00000E+00 0.00000E+00 2.00010E-03 0.00000E+00 2.30452E-19 4.46960E-19
 -3
    1PSTEP                       539         108           1          
  100CL  208 181577.9422          20                     0  108           1
 -4  FORC        4    1
 -5  F1          1    2    1    0
 -5  F2          1    2    2    0
 -5  F3          1    2    3    0
 -5  ALL         1    2    0    0    1ALL
 -1         1-1.48765E+01-1.48765E+01 2.02471E+01
 -1         2-1.48765E+01 1.48765E+01 2.02471E+01
 -1         3-1.48765E+01 1.48765E+01-2.02471E+01
 -1         4-1.48765E+01-1.48765E+01-2.02471E+01
 -1         5 1.48765E+01-1.48765E+01 2.02471E+01
 -1         6 1.48765E+01 1.48765E+01 2.02471E+01
 -1         7 1.48765E+01 1.48765E+01-2.02471E+01
 -1         8 1.48765E+01-1.48765E+01-2.02471E+01
 -1         9 5.95059E+01-9.09802E-15-8.09882E+01
 -1        10 5.95059E+01-5.95059E+01 3.33067E-15
 -1        11 5.95059E+01 7.34941E-15 8.09882E+01
 -1        12 5.95059E+01 5.95059E+01 1.60427E-14
 -1        13-1.47534E-14 5.95059E+01-8.09882E+01
 -1        14 8.31810E-15-5.95059E+01-8.09882E+01
 -1        15 5.44867E-15-5.95059E+01 8.09882E+01
 -1        16 1.12541E-15 5.95059E+01 8.09882E+01
 -1        17-5.95059E+01-3.94795E-16-8.09882E+01
 -1        18-5.95059E+01-5.95059E+01-7.10543E-15
 -1        19-5.95059E+01 1.72750E-16 8.09882E+01
 -1        20-5.95059E+01 5.95059E+01 3.99680E-15
 -3
    1PSTEP                       540         108           1          
  100CL  208 181577.9422          20                     0  108           1
 -4  ERROR       1    1
 -5  STR(%)      1    1    0    0
 -1         1 2.39339E-14
 -1         2 2.39339E-14
 -1         3 2.39339E-14
 -1         4 2.39339E-14
 -1         5 2.39339E-14
 -1         6 2.39339E-14
 -1         7 2.39339E-14
 -1         8 2.39339E-14
 -1         9 2.39339E-14
 -1        10 2.39339E-14
 -1        11 2.39339E-14
 -1        12 2.39339E-14
 -1        13 2.39339E-14
 -1        14 2.39339E-14
 -1        15 2.39339E-14
 -1        16 2.39339E-14
 -1        17 2.39339E-14
 -1        18 2.39339E-14
 -1        19 2.39339E-14
 -1        20 2.39339E-14
 -3
    1PSTEP                       541         109           1          
  100CL  209 183538.1240          20                     0  109           1
 -4  DISP        4    1
 -5  D1          1    2    1    0
 -5  D2          1    2    2    0
 -5  D3          1    2    3    0
 -5  ALL         1    2    0    0    1ALL
 -1         1 0.00000E+00 0.00000E+00 0.00000E+00
 -1         2 0.00000E+00 0.00000E+00 0.00000E+00
 -1         3 0.00000E+00 0.00000E+00 2.00000E-03
 -1         4 0.00000E+00 0.00000E+00 2.00000E-03
 -1         5 0.00000E+00 0.00000E+00 0.00000E+00
 -1         6 0.00000E+00 0.00000E+00 0.00000E+00
 -1         7 0.00000E+00 0.00000E+00 2.00000E-03
 -1         8 0.00000E+00 0.00000E+00 2.00000E-03
 -1         9 0.00000E+00 0.00000E+00 0.00000E+00
 -1        10 0.00000E+00 0.00000E+00 1.00000E-03
 -1        11 0.00000E+00 0.00000E+00 2.00000E-03
 -1        12 0.00000E+00 0.00000E+00 1.00000E-03
 -1        13 0.00000E+00 0.00000E+00 0.00000E+00
 -1        14 0.00000E+00 0.00000E+00 0.00000E+00
 -1        15 0.00000E+00 0.00000E+00 2.00000E-03
 -1        16 0.00000E+00 0.00000E+00 2.00000E-03
 -1        17 0.00000E+00 0.00000E+00 0.00000E+00
 -1        18 0.00000E+00 0.00000E+00 1.00000E-03
 -1        19 0.00000E+00 0.00000E+00 2.00000E-03
 -1        20 0.00000E+00 0.00000E+00 1.00000E-03
 -3
    1PSTEP                       542         109           1          
  100CL  209 183538.1240          20                     0  109           1
 -4  STRESS      6    1
 -5  SXX         1    4    1    1
 -5  SYY         1    4    2    2
 -5  SZZ         1    4    3    3
 -5  SXY         1    4    1    2
 -5  SYZ         1    4    2    3
 -5  SZX         1    4    3    1
 -1         1 1.78678E+02 1.78678E+02 2.42619E+02 0.00000E+00 1.31898E-14 2.29897E-14
 -1         2 1.78678E+02 1.78678E+02 2.42619E+02 0.00000E+00-2.07444E-14-2.58551E-14
 -1         3 1.78678E+02 1.78678E+02 2.42619E+02 0.00000E+00-3.22637E-15-3.83180E-14
 -1         4 1.78678E+02 1.78678E+02 2.42619E+02 0.00000E+00-7.38106E-15 5.63128E-14
 -1         5 1.78678E+02 1.78678E+02 2.42619E+02 0.00000E+00 9.46867E-15-8.09599E-15
 -1         6 1.78678E+02 1.78678E+02 2.42619E+02 0.00000E+00-6.83733E-15 2.77133E-16
 -1         7 1.78678E+02 1.78678E+02 2.42619E+02 0.00000E+00 6.17782E-14 4.51786E-14
 -1         8 1.78678E+02 1.78678E+02 2.42619E+02 0.00000E+00-9.38346E-17-1.20375E-14
 -1         9 1.78695E+02 1.78695E+02 2.42641E+02 0.00000E+00-1.33896E-14-6.54117E-15
 -1        10 1.78695E+02 1.78695E+02 2.42641E+02 0.00000E+00 1.40804E-14 1.23170E-14
 -1        11 1.78695E+02 1.78695E+02 2.42641E+02 0.00000E+00 8.13986E-15 7.15408E-15
 -1        12 1.78695E+02 1.78695E+02 2.42641E+02 0.00000E+00 7.73952E-15 5.49223E-15
 -1        13 1.78695E+02 1.78695E+02 2.42641E+02 0.00000E+00-5.50245E-15-8.10127E-16
 -1        14 1.78695E+02 1.78695E+02 2.42641E+02 0.00000E+00 1.31134E-14 2.85867E-15
 -1        15 1.78695E+02 1.78695E+02 2.42641E+02 0.00000E+00-3.72011E-14 7.96953E-15
 -1        16 1.78695E+02 1.78695E+02 2.42641E+02 0.00000E+00 1.42323E-14 1.33638E-14
 -1        17 1.78695E+02 1.78695E+02 2.42641E+02 0.00000E+00-1.55611E-15 7.27377E-15
 -1        18 1.78695E+02 1.78695E+02 2.42641E+02 0.00000E+00 1.94864E-14-2.51028E-14
 -1        19 1.78695E+02 1.78695E+02 2.42641E+02 0.00000E+00 1.67238E-14-3.58439E-15
 -1        20 1.78695E+02 1.78695E+02 2.42641E+02 0.00000E+00 7.36791E-15 1.42900E-14
 -3
    1PSTEP                       543         109           1          
  100CL  209 183538.1240          20                     0  109           1
 -4  TOSTRAIN    6    1
 -5  EXX         1    4    1    1
 -5  EYY         1    4    2    2
 -5  EZZ         1    4    3    3
 -5  EXY         1    4    1    2
 -5  EYZ         1    4    2    3
 -5  EZX         1    4    3    1
 -1         1 0.00000E+00 0.00000E+00 1.99992E-03 0.00000E+00 4.12546E-19 7.19066E-19
 -1         2 0.00000E+00 0.00000E+00 1.99992E-03 0.00000E+00-6.48839E-19-8.08690E-19
 -1         3 0.00000E+00 0.00000E+00 1.99992E-03 0.00000E+00-1.00914E-19-1.19850E-18
 -1         4 0.00000E+00 0.00000E+00 1.99992E-03 0.00000E+00-2.30863E-19 1.76134E-18
 -1         5 0.00000E+00 0.00000E+00 1.99992E-03 0.00000E+00 2.96159E-19-2.53224E-19
 -1         6 0.00000E+00 0.00000E+00 1.99992E-03 0.00000E+00-2.13856E-19 8.66809E-21
 -1         7 0.00000E+00 0.00000E+00 1.99992E-03 0.00000E+00 1.93228E-18 1.41309E-18
 -1         8 0.00000E+00 0.00000E+00 1.99992E-03 0.00000E+00-2.93494E-21-3.76507E-19
 -1         9 0.00000E+00 0.00000E+00 2.00010E-03 0.00000E+00-4.18795E-19-2.04593E-19
 -1        10 0.00000E+00 0.00000E+00 2.00010E-03 0.00000E+00 4.40404E-19 3.85247E-19
 -1        11 0.00000E+00 0.00000E+00 2.00010E-03 0.00000E+00 2.54597E-19 2.23763E-19
 -1        12 0.00000E+00 0.00000E+00 2.00010E-03 0.00000E+00 2.42075E-19 1.71784E-19
 -1        13 0.00000E+00 0.00000E+00 2.00010E-03 0.00000E+00-1.72104E-19-2.53389E-20
 -1        14 0.00000E+00 0.00000E+00 2.00010E-03 0.00000E+00 4.10158E-19 8.94127E-20
 -1        15 0.00000E+00 0.00000E+00 2.00010E-03 0.00000E+00-1.16356E-18 2.49269E-19
 -1        16 0.00000E+00 0.00000E+00 2.00010E-03 0.00000E+00 4.45153E-19 4.17991E-19
 -1        17 0.00000E+00 0.00000E+00 2.00010E-03 0.00000E+00-4.86716E-20 2.27507E-19
 -1        18 0.00000E+00 0.00000E+00 2.00010E-03 0.00000E+00 6.09490E-19-7.85158E-19
 -1        19 0.00000E+00 0.00000E+00 2.00010E-03 0.00000E+00 5.23083E-19-1.12112E-19
 -1        20 0.00000E+00 0.00000E+00 2.00010E-03 0.00000E+00 2.30452E-19 4.46960E-19
 -3
    1PSTEP                       544         109           1          
  100CL  209 183538.1240          20                     0  109           1
 -4  FORC        4    1
 -5  F1          1    2    1    0
 -5  F2          1    2    2    0
 -5  F3          1    2    3    0
 -5  ALL         1    2    0    0    1ALL
 -1         1-1.48905E+01-1.48905E+01 2.02191E+01
 -1         2-1.48905E+01 1.48905E+01 2.02191E+01
 -1         3-1.48905E+01 1.48905E+01-2.02191E+01
 -1         4-1.48905E+01-1.48905E+01-2.02191E+01
 -1         5 1.48905E+01-1.48905E+01 2.02191E+01
 -1         6 1.48905E+01 1.48905E+01 2.02191E+01
 -1         7 1.48905E+01 1.48905E+01-2.02191E+01
 -1         8 1.48905E+01-1.48905E+01-2.02191E+01
 -1         9 5.95619E+01-1.17624E-14-8.08763E+01
 -1        10 5.95619E+01-5.95619E+01 5.77316E-15
 -1        11 5.95619E+01 2.24222E-15 8.08763E+01
 -1        12 5.95619E+01 5.95619E+01 1.78746E-14
 -1        13-4.40045E-15 5.95619E+01-8.08763E+01
 -1        14 1.36481E-14-5.95619E+01-8.08763E+01
 -1        15 3.67137E-15-5.95619E+01 8.08763E+01
 -1        16 2.67961E-15 5.95619E+01 8.08763E+01
 -1        17-5.95619E+01 1.60496E-15-8.08763E+01
 -1        18-5.95619E+01-5.95619E+01-1.77636E-15
 -1        19-5.95619E+01 1.94776E-15 8.08763E+01
 -1        20-5.95619E+01 5.95619E+01-1.55431E-15
 -3
    1PSTEP                       545         109           1          
  100CL  209 183538.1240          20                     0  109           1
 -4  ERROR       1    1
 -5  STR(%)      1    1    0    0
 -1         1 2.03719E-14
 -1         2 2.03719E-14
 -1         3 2.03719E-14
 -1         4 2.03719E-14
 -1         5 2.03719E-14
 -1         6 2.03719E-14
 -1         7 2.03719E-14
 -1         8 2.03719E-14
 -1         9 2.03719E-14
 -1        10 2.03719E-14
 -1        11 2.03719E-14
 -1        12 2.03719E-14
 -1        13 2.03719E-14
 -1        14 2.03719E-14
 -1        15 2.03719E-14
 -1        16 2.03719E-14
 -1        17 2.03719E-14
 -1        18 2.03719E-14
 -1        19 2.03719E-14
 -1        20 2.03719E-14
 -3
    1PSTEP                       546         110           1          
  100CL  210 186478.3967          20                     0  110           1
 -4  DISP        4    1
 -5  D1          1    2    1    0
 -5  D2          1    2    2    0
 -5  D3          1    2    3    0
 -5  ALL         1    2    0    0    1ALL
 -1         1 0.00000E+00 0.00000E+00 0.00000E+00
 -1         2 0.00000E+00 0.00000E+00 0.00000E+00
 -1         3 0.00000E+00 0.00000E+00 2.00000E-03
 -1         4 0.00000E+00 0.00000E+00 2.00000E-03
 -1         5 0.00000E+00 0.00000E+00 0.00000E+00
 -1         6 0.00000E+00 0.00000E+00 0.00000E+00
 -1         7 0.00000E+00 0.00000E+00 2.00000E-03
 -1         8 0.00000E+00 0.00000E+00 2.00000E-03
 -1         9 0.00000E+00 0.00000E+00 0.00000E+00
 -1        10 0.00000E+00 0.00000E+00 1.00000E-03
 -1        11 0.00000E+00 0.00000E+00 2.00000E-03
 -1        12 0.00000E+00 0.00000E+00 1.00000E-03
 -1        13 0.00000E+00 0.00000E+00 0.00000E+00
 -1        14 0.00000E+00 0.00000E+00 0.00000E+00
 -1        15 0.00000E+00 0.00000E+00 2.00000E-03
 -1        16 0.00000E+00 0.00000E+00 2.00000E-03
 -1        17 0.00000E+00 0.00000E+00 0.00000E+00
 -1        18 0.00000E+00 0.00000E+00 1.00000E-03
 -1        19 0.00000E+00 0.00000E+00 2.00000E-03
 -1        20 0.00000E+00 0.00000E+00 1.00000E-03
 -3
    1PSTEP                       547         110           1          
  100CL  210 186478.3967          20                     0  110           1
 -4  STRESS      6    1
 -5  SXX         1    4    1    1
 -5  SYY         1    4    2    2
 -5  SZZ         1    4    3    3
 -5  SXY         1    4    1    2
 -5  SYZ         1    4    2    3
 -5  SZX         1    4    3    1
 -1         1 1.78927E+02 1.78927E+02 2.42121E+02 0.00000E+00 1.30357E-14 2.27212E-14
 -1         2 1.78927E+02 1.78927E+02 2.42121E+02 0.00000E+00-2.05021E-14-2.55531E-14
 -1         3 1.78927E+02 1.78927E+02 2.42121E+02 0.00000E+00-3.18869E-15-3.78705E-14
 -1         4 1.78927E+02 1.78927E+02 2.42121E+02 0.00000E+00-7.29484E-15 5.56551E-14
 -1         5 1.78927E+02 1.78927E+02 2.42121E+02 0.00000E+00 9.35807E-15-8.00142E-15
 -1         6 1.78927E+02 1.78927E+02 2.42121E+02 0.00000E+00-6.75747E-15 2.73896E-16
 -1         7 1.78927E+02 1.78927E+02 2.42121E+02 0.00000E+00 6.10566E-14 4.46509E-14
 -1         8 1.78927E+02 1.78927E+02 2.42121E+02 0.00000E+00-9.27386E-17-1.18969E-14
 -1         9 1.78943E+02 1.78943E+02 2.42143E+02 0.00000E+00-1.32332E-14-6.46477E-15
 -1        10 1.78943E+02 1.78943E+02 2.42143E+02 0.00000E+00 1.39160E-14 1.21731E-14
 -1        11 1.78943E+02 1.78943E+02 2.42143E+02 0.00000E+00 8.04479E-15 7.07052E-15
 -1        12 1.78943E+02 1.78943E+02 2.42143E+02 0.00000E+00 7.64912E-15 5.42808E-15
 -1        13 1.78943E+02 1.78943E+02 2.42143E+02 0.00000E+00-5.43818E-15-8.00665E-16
 -1        14 1.78943E+02 1.78943E+02 2.42143E+02 0.00000E+00 1.29603E-14 2.82528E-15
 -1        15 1.78943E+02 1.78943E+02 2.42143E+02 0.00000E+00-3.67665E-14 7.87645E-15
 -1        16 1.78943E+02 1.78943E+02 2.42143E+02 0.00000E+00 1.40660E-14 1.32078E-14
 -1        17 1.78943E+02 1.78943E+02 2.42143E+02 0.00000E+00-1.53793E-15 7.18881E-15
 -1        18 1.78943E+02 1.78943E+02 2.42143E+02 0.00000E+00 1.92588E-14-2.48096E-14
 -1        19 1.78943E+02 1.78943E+02 2.42143E+02 0.00000E+00 1.65285E-14-3.54252E-15
 -1        20 1.78943E+02 1.78943E+02 2.42143E+02 0.00000E+00 7.28185E-15 1.41231E-14
 -3
    1PSTEP                       548         110           1          
  100CL  210 186478.3967          20                     0  110           1
 -4  TOSTRAIN    6    1
 -5  EXX         1    4    1    1
 -5  EYY         1    4    2    2
 -5  EZZ         1    4    3    3
 -5  EXY         1    4    1    2
 -5  EYZ         1    4    2    3
 -5  EZX         1    4    3    1
 -1         1 0.00000E+00 0.00000E+00 1.99992E-03 0.00000E+00 4.12546E-19 7.19066E-19
 -1         2 0.00000E+00 0.00000E+00 1.99992E-03 0.00000E+00-6.48839E-19-8.08690E-19
 -1         3 0.00000E+00 0.00000E+00 1.99992E-03 0.00000E+00-1.00914E-19-1.19850E-18
 -1         4 0.00000E+00 0.00000E+00 1.99992E-03 0.00000E+00-2.30863E-19 1.76134E-18
 -1         5 0.00000E+00 0.00000E+00 1.99992E-03 0.00000E+00 2.96159E-19-2.53224E-19
 -1         6 0.00000E+00 0.00000E+00 1.99992E-03 0.00000E+00-2.13856E-19 8.66809E-21
 -1         7 0.00000E+00 0.00000E+00 1.99992E-03 0.00000E+00 1.93228E-18 1.41309E-18
 -1         8 0.00000E+00 0.00000E+00 1.99992E-03 0.00000E+00-2.93494E-21-3.76507E-19
 -1         9 0.00000E+00 0.00000E+00 2.00010E-03 0.00000E+00-4.18795E-19-2.04593E-19
 -1        10 0.00000E+00 0.00000E+00 2.00010E-03 0.00000E+00 4.40404E-19 3.85247E-19
 -1        11 0.00000E+00 0.00000E+00 2.00010E-03 0.00000E+00 2.54597E-19 2.23763E-19
 -1        12 0.00000E+00 0.00000E+00 2.00010E-03 0.00000E+00 2.42075E-19 1.71784E-19
 -1        13 0.00000E+00 0.00000E+00 2.00010E-03 0.00000E+00-1.72104E-19-2.53389E-20
 -1        14 0.00000E+00 0.00000E+00 2.00010E-03 0.00000E+00 4.10158E-19 8.94127E-20
 -1        15 0.00000E+00 0.00000E+00 2.00010E-03 0.00000E+00-1.16356E-18 2.49269E-19
 -1        16 0.00000E+00 0.00000E+00 2.00010E-03 0.00000E+00 4.45153E-19 4.17991E-19
 -1        17 0.00000E+00 0.00000E+00 2.00010E-03 0.00000E+00-4.86716E-20 2.27507E-19
 -1        18 0.00000E+00 0.00000E+00 2.00010E-03 0.00000E+00 6.09490E-19-7.85158E-19
 -1        19 0.00000E+00 0.00000E+00 2.00010E-03 0.00000E+00 5.23083E-19-1.12112E-19
 -1        20 0.00000E+00 0.00000E+00 2.00010E-03 0.00000E+00 2.30452E-19 4.46960E-19
 -3
    1PSTEP                       549         110           1          
  100CL  210 186478.3967          20                     0  110           1
 -4  FORC        4    1
 -5  F1          1    2    1    0
 -5  F2          1    2    2    0
 -5  F3          1    2    3    0
 -5  ALL         1    2    0    0    1ALL
 -1         1-1.49112E+01-1.49112E+01 2.01776E+01
 -1         2-1.49112E+01 1.49112E+01 2.01776E+01
 -1         3-1.49112E+01 1.49112E+01-2.01776E+01
 -1         4-1.49112E+01-1.49112E+01-2.01776E+01
 -1         5 1.49112E+01-1.49112E+01 2.01776E+01
 -1         6 1.49112E+01 1.49112E+01 2.01776E+01
 -1         7 1.49112E+01 1.49112E+01-2.01776E+01
 -1         8 1.49112E+01-1.49112E+01-2.01776E+01
 -1         9 5.96448E+01-8.43146E-15-8.07103E+01
 -1        10 5.96448E+01-5.96448E+01 2.44249E-15
 -1        11 5.96448E+01 5.79468E-15 8.07103E+01
 -1        12 5.96448E+01 5.96448E+01 1.36280E-14
 -1        13-1.38649E-14 5.96448E+01-8.07103E+01
 -1        14 9.20860E-15-5.96448E+01-8.07103E+01
 -1        15-1.05409E-14-5.96448E+01 8.07103E+01
 -1        16-1.01992E-14 5.96448E+01 8.07103E+01
 -1        17-5.96448E+01 3.16127E-15-8.07103E+01
 -1        18-5.96448E+01-5.96448E+01 0.00000E+00
 -1        19-5.96448E+01 5.49847E-15 8.07103E+01
 -1        20-5.96448E+01 5.96448E+01 4.88498E-15
 -3
    1PSTEP                       550         110           1          
  100CL  210 186478.3967          20                     0  110           1
 -4  ERROR       1    1
 -5  STR(%)      1    1    0    0
 -1         1 2.40163E-14
 -1         2 2.40163E-14
 -1         3 2.40163E-14
 -1         4 2.40163E-14
 -1         5 2.40163E-14
 -1         6 2.40163E-14
 -1         7 2.40163E-14
 -1         8 2.40163E-14
 -1         9 2.40163E-14
 -1        10 2.40163E-14
 -1        11 2.40163E-14
 -1        12 2.40163E-14
 -1        13 2.40163E-14
 -1        14 2.40163E-14
 -1        15 2.40163E-14
 -1        16 2.40163E-14
 -1        17 2.40163E-14
 -1        18 2.40163E-14
 -1        19 2.40163E-14
 -1        20 2.40163E-14
 -3
    1PSTEP                       551         111           1          
  100CL  211 188399.5271          20                     0  111           1
 -4  DISP        4    1
 -5  D1          1    2    1    0
 -5  D2          1    2    2    0
 -5  D3          1    2    3    0
 -5  ALL         1    2    0    0    1ALL
 -1         1 0.00000E+00 0.00000E+00 0.00000E+00
 -1         2 0.00000E+00 0.00000E+00 0.00000E+00
 -1         3 0.00000E+00 0.00000E+00 2.00000E-03
 -1         4 0.00000E+00 0.00000E+00 2.00000E-03
 -1         5 0.00000E+00 0.00000E+00 0.00000E+00
 -1         6 0.00000E+00 0.00000E+00 0.00000E+00
 -1         7 0.00000E+00 0.00000E+00 2.00000E-03
 -1         8 0.00000E+00 0.00000E+00 2.00000E-03
 -1         9 0.00000E+00 0.00000E+00 0.00000E+00
 -1        10 0.00000E+00 0.00000E+00 1.00000E-03
 -1        11 0.00000E+00 0.00000E+00 2.00000E-03
 -1        12 0.00000E+00 0.00000E+00 1.00000E-03
 -1        13 0.00000E+00 0.00000E+00 0.00000E+00
 -1        14 0.00000E+00 0.00000E+00 0.00000E+00
 -1        15 0.00000E+00 0.00000E+00 2.00000E-03
 -1        16 0.00000E+00 0.00000E+00 2.00000E-03
 -1        17 0.00000E+00 0.00000E+00 0.00000E+00
 -1        18 0.00000E+00 0.00000E+00 1.00000E-03
 -1        19 0.00000E+00 0.00000E+00 2.00000E-03
 -1        20 0.00000E+00 0.00000E+00 1.00000E-03
 -3
    1PSTEP                       552         111           1          
  100CL  211 188399.5271          20                     0  111           1
 -4  STRESS      6    1
 -5  SXX         1    4    1    1
 -5  SYY         1    4    2    2
 -5  SZZ         1    4    3    3
 -5  SXY         1    4    1    2
 -5  SYZ         1    4    2    3
 -5  SZX         1    4    3    1
 -1         1 1.79089E+02 1.79089E+02 2.41798E+02 0.00000E+00 1.29358E-14 2.25471E-14
 -1         2 1.79089E+02 1.79089E+02 2.41798E+02 0.00000E+00-2.03450E-14-2.53573E-14
 -1         3 1.79089E+02 1.79089E+02 2.41798E+02 0.00000E+00-3.16426E-15-3.75803E-14
 -1         4 1.79089E+02 1.79089E+02 2.41798E+02 0.00000E+00-7.23895E-15 5.52286E-14
 -1         5 1.79089E+02 1.79089E+02 2.41798E+02 0.00000E+00 9.28637E-15-7.94011E-15
 -1         6 1.79089E+02 1.79089E+02 2.41798E+02 0.00000E+00-6.70569E-15 2.71797E-16
 -1         7 1.79089E+02 1.79089E+02 2.41798E+02 0.00000E+00 6.05888E-14 4.43088E-14
 -1         8 1.79089E+02 1.79089E+02 2.41798E+02 0.00000E+00-9.20280E-17-1.18058E-14
 -1         9 1.79105E+02 1.79105E+02 2.41820E+02 0.00000E+00-1.31318E-14-6.41523E-15
 -1        10 1.79105E+02 1.79105E+02 2.41820E+02 0.00000E+00 1.38093E-14 1.20798E-14
 -1        11 1.79105E+02 1.79105E+02 2.41820E+02 0.00000E+00 7.98314E-15 7.01634E-15
 -1        12 1.79105E+02 1.79105E+02 2.41820E+02 0.00000E+00 7.59051E-15 5.38648E-15
 -1        13 1.79105E+02 1.79105E+02 2.41820E+02 0.00000E+00-5.39651E-15-7.94530E-16
 -1        14 1.79105E+02 1.79105E+02 2.41820E+02 0.00000E+00 1.28610E-14 2.80363E-15
 -1        15 1.79105E+02 1.79105E+02 2.41820E+02 0.00000E+00-3.64848E-14 7.81609E-15
 -1        16 1.79105E+02 1.79105E+02 2.41820E+02 0.00000E+00 1.39582E-14 1.31065E-14
 -1        17 1.79105E+02 1.79105E+02 2.41820E+02 0.00000E+00-1.52615E-15 7.13372E-15
 -1        18 1.79105E+02 1.79105E+02 2.41820E+02 0.00000E+00 1.91112E-14-2.46195E-14
 -1        19 1.79105E+02 1.79105E+02 2.41820E+02 0.00000E+00 1.64018E-14-3.51538E-15
 -1        20 1.79105E+02 1.79105E+02 2.41820E+02 0.00000E+00 7.22605E-15 1.40149E-14
 -3
    1PSTEP                       553         111           1          
  100CL  211 188399.5271          20                     0  111           1
 -4  TOSTRAIN    6    1
 -5  EXX         1    4    1    1
 -5  EYY         1    4    2    2
 -5  EZZ         1    4    3    3
 -5  EXY         1    4    1    2
 -5  EYZ         1    4    2    3
 -5  EZX         1    4    3    1
 -1         1 0.00000E+00 0.00000E+00 1.99992E-03 0.00000E+00 4.12546E-19 7.19066E-19
 -1         2 0.00000E+00 0.00000E+00 1.99992E-03 0.00000E+00-6.48839E-19-8.08690E-19
 -1         3 0.00000E+00 0.00000E+00 1.99992E-03 0.00000E+00-1.00914E-19-1.19850E-18
 -1         4 0.00000E+00 0.00000E+00 1.99992E-03 0.00000E+00-2.30863E-19 1.76134E-18
 -1         5 0.00000E+00 0.00000E+00 1.99992E-03 0.00000E+00 2.96159E-19-2.53224E-19
 -1         6 0.00000E+00 0.00000E+00 1.99992E-03 0.00000E+00-2.13856E-19 8.66809E-21
 -1         7 0.00000E+00 0.00000E+00 1.99992E-03 0.00000E+00 1.93228E-18 1.41309E-18
 -1         8 0.00000E+00 0.00000E+00 1.99992E-03 0.00000E+00-2.93494E-21-3.76507E-19
 -1         9 0.00000E+00 0.00000E+00 2.00010E-03 0.00000E+00-4.18795E-19-2.04593E-19
 -1        10 0.00000E+00 0.00000E+00 2.00010E-03 0.00000E+00 4.40404E-19 3.85247E-19
 -1        11 0.00000E+00 0.00000E+00 2.00010E-03 0.00000E+00 2.54597E-19 2.23763E-19
 -1        12 0.00000E+00 0.00000E+00 2.00010E-03 0.00000E+00 2.42075E-19 1.71784E-19
 -1        13 0.00000E+00 0.00000E+00 2.00010E-03 0.00000E+00-1.72104E-19-2.53389E-20
 -1        14 0.00000E+00 0.00000E+00 2.00010E-03 0.00000E+00 4.10158E-19 8.94127E-20
 -1        15 0.00000E+00 0.00000E+00 2.00010E-03 0.00000E+00-1.16356E-18 2.49269E-19
 -1        16 0.00000E+00 0.00000E+00 2.00010E-03 0.00000E+00 4.45153E-19 4.17991E-19
 -1        17 0.00000E+00 0.00000E+00 2.00010E-03 0.00000E+00-4.86716E-20 2.27507E-19
 -1        18 0.00000E+00 0.00000E+00 2.00010E-03 0.00000E+00 6.09490E-19-7.85158E-19
 -1        19 0.00000E+00 0.00000E+00 2.00010E-03 0.00000E+00 5.23083E-19-1.12112E-19
 -1        20 0.00000E+00 0.00000E+00 2.00010E-03 0.00000E+00 2.30452E-19 4.46960E-19
 -3
    1PSTEP                       554         111           1          
  100CL  211 188399.5271          20                     0  111           1
 -4  FORC        4    1
 -5  F1          1    2    1    0
 -5  F2          1    2    2    0
 -5  F3          1    2    3    0
 -5  ALL         1    2    0    0    1ALL
 -1         1-1.49247E+01-1.49247E+01 2.01507E+01
 -1         2-1.49247E+01 1.49247E+01 2.01507E+01
 -1         3-1.49247E+01 1.49247E+01-2.01507E+01
 -1         4-1.49247E+01-1.49247E+01-2.01507E+01
 -1         5 1.49247E+01-1.49247E+01 2.01507E+01
 -1         6 1.49247E+01 1.49247E+01 2.01507E+01
 -1         7 1.49247E+01 1.49247E+01-2.01507E+01
 -1         8 1.49247E+01-1.49247E+01-2.01507E+01
 -1         9 5.96987E+01-8.84762E-15-8.06027E+01
 -1        10 5.96987E+01-5.96987E+01 1.08802E-14
 -1        11 5.96987E+01 8.90314E-15 8.06027E+01
 -1        12 5.96987E+01 5.96987E+01 2.46192E-14
 -1        13 6.06369E-15 5.96987E+01-8.06027E+01
 -1        14 1.67590E-14-5.96987E+01-8.06027E+01
 -1        15-1.40945E-14-5.96987E+01 8.06027E+01
 -1        16-1.17536E-14 5.96987E+01 8.06027E+01
 -1        17-5.96987E+01 3.16257E-15-8.06027E+01
 -1        18-5.96987E+01-5.96987E+01 3.55271E-15
 -1        19-5.96987E+01 3.72081E-15 8.06027E+01
 -1        20-5.96987E+01 5.96987E+01 8.88178E-15
 -3
    1PSTEP                       555         111           1          
  100CL  211 188399.5271          20                     0  111           1
 -4  ERROR       1    1
 -5  STR(%)      1    1    0    0
 -1         1 2.28459E-14
 -1         2 2.28459E-14
 -1         3 2.28459E-14
 -1         4 2.28459E-14
 -1         5 2.28459E-14
 -1         6 2.28459E-14
 -1         7 2.28459E-14
 -1         8 2.28459E-14
 -1         9 2.28459E-14
 -1        10 2.28459E-14
 -1        11 2.28459E-14
 -1        12 2.28459E-14
 -1        13 2.28459E-14
 -1        14 2.28459E-14
 -1        15 2.28459E-14
 -1        16 2.28459E-14
 -1        17 2.28459E-14
 -1        18 2.28459E-14
 -1        19 2.28459E-14
 -1        20 2.28459E-14
 -3
    1PSTEP                       556         112           1          
  100CL  212 190320.6575          20                     0  112           1
 -4  DISP        4    1
 -5  D1          1    2    1    0
 -5  D2          1    2    2    0
 -5  D3          1    2    3    0
 -5  ALL         1    2    0    0    1ALL
 -1         1 0.00000E+00 0.00000E+00 0.00000E+00
 -1         2 0.00000E+00 0.00000E+00 0.00000E+00
 -1         3 0.00000E+00 0.00000E+00 2.00000E-03
 -1         4 0.00000E+00 0.00000E+00 2.00000E-03
 -1         5 0.00000E+00 0.00000E+00 0.00000E+00
 -1         6 0.00000E+00 0.00000E+00 0.00000E+00
 -1         7 0.00000E+00 0.00000E+00 2.00000E-03
 -1         8 0.00000E+00 0.00000E+00 2.00000E-03
 -1         9 0.00000E+00 0.00000E+00 0.00000E+00
 -1        10 0.00000E+00 0.00000E+00 1.00000E-03
 -1        11 0.00000E+00 0.00000E+00 2.00000E-03
 -1        12 0.00000E+00 0.00000E+00 1.00000E-03
 -1        13 0.00000E+00 0.00000E+00 0.00000E+00
 -1        14 0.00000E+00 0.00000E+00 0.00000E+00
 -1        15 0.00000E+00 0.00000E+00 2.00000E-03
 -1        16 0.00000E+00 0.00000E+00 2.00000E-03
 -1        17 0.00000E+00 0.00000E+00 0.00000E+00
 -1        18 0.00000E+00 0.00000E+00 1.00000E-03
 -1        19 0.00000E+00 0.00000E+00 2.00000E-03
 -1        20 0.00000E+00 0.00000E+00 1.00000E-03
 -3
    1PSTEP                       557         112           1          
  100CL  212 190320.6575          20                     0  112           1
 -4  STRESS      6    1
 -5  SXX         1    4    1    1
 -5  SYY         1    4    2    2
 -5  SZZ         1    4    3    3
 -5  SXY         1    4    1    2
 -5  SYZ         1    4    2    3
 -5  SZX         1    4    3    1
 -1         1 1.79249E+02 1.79249E+02 2.41478E+02 0.00000E+00 1.28367E-14 2.23743E-14
 -1         2 1.79249E+02 1.79249E+02 2.41478E+02 0.00000E+00-2.01891E-14-2.51630E-14
 -1         3 1.79249E+02 1.79249E+02 2.41478E+02 0.00000E+00-3.14001E-15-3.72923E-14
 -1         4 1.79249E+02 1.79249E+02 2.41478E+02 0.00000E+00-7.18348E-15 5.48054E-14
 -1         5 1.79249E+02 1.79249E+02 2.41478E+02 0.00000E+00 9.21521E-15-7.87927E-15
 -1         6 1.79249E+02 1.79249E+02 2.41478E+02 0.00000E+00-6.65431E-15 2.69715E-16
 -1         7 1.79249E+02 1.79249E+02 2.41478E+02 0.00000E+00 6.01245E-14 4.39693E-14
 -1         8 1.79249E+02 1.79249E+02 2.41478E+02 0.00000E+00-9.13228E-17-1.17153E-14
 -1         9 1.79265E+02 1.79265E+02 2.41500E+02 0.00000E+00-1.30311E-14-6.36607E-15
 -1        10 1.79265E+02 1.79265E+02 2.41500E+02 0.00000E+00 1.37035E-14 1.19873E-14
 -1        11 1.79265E+02 1.79265E+02 2.41500E+02 0.00000E+00 7.92197E-15 6.96257E-15
 -1        12 1.79265E+02 1.79265E+02 2.41500E+02 0.00000E+00 7.53234E-15 5.34521E-15
 -1        13 1.79265E+02 1.79265E+02 2.41500E+02 0.00000E+00-5.35516E-15-7.88441E-16
 -1        14 1.79265E+02 1.79265E+02 2.41500E+02 0.00000E+00 1.27624E-14 2.78215E-15
 -1        15 1.79265E+02 1.79265E+02 2.41500E+02 0.00000E+00-3.62052E-14 7.75620E-15
 -1        16 1.79265E+02 1.79265E+02 2.41500E+02 0.00000E+00 1.38513E-14 1.30061E-14
 -1        17 1.79265E+02 1.79265E+02 2.41500E+02 0.00000E+00-1.51446E-15 7.07906E-15
 -1        18 1.79265E+02 1.79265E+02 2.41500E+02 0.00000E+00 1.89648E-14-2.44308E-14
 -1        19 1.79265E+02 1.79265E+02 2.41500E+02 0.00000E+00 1.62761E-14-3.48844E-15
 -1        20 1.79265E+02 1.79265E+02 2.41500E+02 0.00000E+00 7.17068E-15 1.39075E-14
 -3
    1PSTEP                       558         112           1          
  100CL  212 190320.6575          20                     0  112           1
 -4  TOSTRAIN    6    1
 -5  EXX         1    4    1    1
 -5  EYY         1    4    2    2
 -5  EZZ         1    4    3    3
 -5  EXY         1    4    1    2
 -5  EYZ         1    4    2    3
 -5  EZX         1    4    3    1
 -1         1 0.00000E+00 0.00000E+00 1.99992E-03 0.00000E+00 4.12546E-19 7.19066E-19
 -1         2 0.00000E+00 0.00000E+00 1.99992E-03 0.00000E+00-6.48839E-19-8.08690E-19
 -1         3 0.00000E+00 0.00000E+00 1.99992E-03 0.00000E+00-1.00914E-19-1.19850E-18
 -1         4 0.00000E+00 0.00000E+00 1.99992E-03 0.00000E+00-2.30863E-19 1.76134E-18
 -1         5 0.00000E+00 0.00000E+00 1.99992E-03 0.00000E+00 2.96159E-19-2.53224E-19
 -1         6 0.00000E+00 0.00000E+00 1.99992E-03 0.00000E+00-2.13856E-19 8.66809E-21
 -1         7 0.00000E+00 0.00000E+00 1.99992E-03 0.00000E+00 1.93228E-18 1.41309E-18
 -1         8 0.00000E+00 0.00000E+00 1.99992E-03 0.00000E+00-2.93494E-21-3.76507E-19
 -1         9 0.00000E+00 0.00000E+00 2.00010E-03 0.00000E+00-4.18795E-19-2.04593E-19
 -1        10 0.00000E+00 0.00000E+00 2.00010E-03 0.00000E+00 4.40404E-19 3.85247E-19
 -1        11 0.00000E+00 0.00000E+00 2.00010E-03 0.00000E+00 2.54597E-19 2.23763E-19
 -1        12 0.00000E+00 0.00000E+00 2.00010E-03 0.00000E+00 2.42075E-19 1.71784E-19
 -1        13 0.00000E+00 0.00000E+00 2.00010E-03 0.00000E+00-1.72104E-19-2.53389E-20
 -1        14 0.00000E+00 0.00000E+00 2.00010E-03 0.00000E+00 4.10158E-19 8.94127E-20
 -1        15 0.00000E+00 0.00000E+00 2.00010E-03 0.00000E+00-1.16356E-18 2.49269E-19
 -1        16 0.00000E+00 0.00000E+00 2.00010E-03 0.00000E+00 4.45153E-19 4.17991E-19
 -1        17 0.00000E+00 0.00000E+00 2.00010E-03 0.00000E+00-4.86716E-20 2.27507E-19
 -1        18 0.00000E+00 0.00000E+00 2.00010E-03 0.00000E+00 6.09490E-19-7.85158E-19
 -1        19 0.00000E+00 0.00000E+00 2.00010E-03 0.00000E+00 5.23083E-19-1.12112E-19
 -1        20 0.00000E+00 0.00000E+00 2.00010E-03 0.00000E+00 2.30452E-19 4.46960E-19
 -3
    1PSTEP                       559         112           1          
  100CL  212 190320.6575          20                     0  112           1
 -4  FORC        4    1
 -5  F1          1    2    1    0
 -5  F2          1    2    2    0
 -5  F3          1    2    3    0
 -5  ALL         1    2    0    0    1ALL
 -1         1-1.49380E+01-1.49380E+01 2.01240E+01
 -1         2-1.49380E+01 1.49380E+01 2.01240E+01
 -1         3-1.49380E+01 1.49380E+01-2.01240E+01
 -1         4-1.49380E+01-1.49380E+01-2.01240E+01
 -1         5 1.49380E+01-1.49380E+01 2.01240E+01
 -1         6 1.49380E+01 1.49380E+01 2.01240E+01
 -1         7 1.49380E+01 1.49380E+01-2.01240E+01
 -1         8 1.49380E+01-1.49380E+01-2.01240E+01
 -1         9 5.97520E+01-6.65477E-15-8.04959E+01
 -1        10 5.97520E+01-5.97520E+01 5.32907E-15
 -1        11 5.97520E+01 1.79754E-15 8.04959E+01
 -1        12 5.97520E+01 5.97520E+01 8.13238E-15
 -1        13 3.70458E-15 5.97520E+01-8.04959E+01
 -1        14 1.52056E-14-5.97520E+01-8.04959E+01
 -1        15-6.98994E-15-5.97520E+01 8.04959E+01
 -1        16-3.09396E-15 5.97520E+01 8.04959E+01
 -1        17-5.97520E+01-1.94317E-15-8.04959E+01
 -1        18-5.97520E+01-5.97520E+01 3.55271E-15
 -1        19-5.97520E+01 1.66812E-16 8.04959E+01
 -1        20-5.97520E+01 5.97520E+01 2.88658E-15
 -3
    1PSTEP                       560         112           1          
  100CL  212 190320.6575          20                     0  112           1
 -4  ERROR       1    1
 -5  STR(%)      1    1    0    0
 -1         1 3.13043E-14
 -1         2 3.13043E-14
 -1         3 3.13043E-14
 -1         4 3.13043E-14
 -1         5 3.13043E-14
 -1         6 3.13043E-14
 -1         7 3.13043E-14
 -1         8 3.13043E-14
 -1         9 3.13043E-14
 -1        10 3.13043E-14
 -1        11 3.13043E-14
 -1        12 3.13043E-14
 -1        13 3.13043E-14
 -1        14 3.13043E-14
 -1        15 3.13043E-14
 -1        16 3.13043E-14
 -1        17 3.13043E-14
 -1        18 3.13043E-14
 -1        19 3.13043E-14
 -1        20 3.13043E-14
 -3
    1PSTEP                       561         113           1          
  100CL  213 193202.3530          20                     0  113           1
 -4  DISP        4    1
 -5  D1          1    2    1    0
 -5  D2          1    2    2    0
 -5  D3          1    2    3    0
 -5  ALL         1    2    0    0    1ALL
 -1         1 0.00000E+00 0.00000E+00 0.00000E+00
 -1         2 0.00000E+00 0.00000E+00 0.00000E+00
 -1         3 0.00000E+00 0.00000E+00 2.00000E-03
 -1         4 0.00000E+00 0.00000E+00 2.00000E-03
 -1         5 0.00000E+00 0.00000E+00 0.00000E+00
 -1         6 0.00000E+00 0.00000E+00 0.00000E+00
 -1         7 0.00000E+00 0.00000E+00 2.00000E-03
 -1         8 0.00000E+00 0.00000E+00 2.00000E-03
 -1         9 0.00000E+00 0.00000E+00 0.00000E+00
 -1        10 0.00000E+00 0.00000E+00 1.00000E-03
 -1        11 0.00000E+00 0.00000E+00 2.00000E-03
 -1        12 0.00000E+00 0.00000E+00 1.00000E-03
 -1        13 0.00000E+00 0.00000E+00 0.00000E+00
 -1        14 0.00000E+00 0.00000E+00 0.00000E+00
 -1        15 0.00000E+00 0.00000E+00 2.00000E-03
 -1        16 0.00000E+00 0.00000E+00 2.00000E-03
 -1        17 0.00000E+00 0.00000E+00 0.00000E+00
 -1        18 0.00000E+00 0.00000E+00 1.00000E-03
 -1        19 0.00000E+00 0.00000E+00 2.00000E-03
 -1        20 0.00000E+00 0.00000E+00 1.00000E-03
 -3
    1PSTEP                       562         113           1          
  100CL  213 193202.3530          20                     0  113           1
 -4  STRESS      6    1
 -5  SXX         1    4    1    1
 -5  SYY         1    4    2    2
 -5  SZZ         1    4    3    3
 -5  SXY         1    4    1    2
 -5  SYZ         1    4    2    3
 -5  SZX         1    4    3    1
 -1         1 1.79486E+02 1.79486E+02 2.41003E+02 0.00000E+00 1.26897E-14 2.21181E-14
 -1         2 1.79486E+02 1.79486E+02 2.41003E+02 0.00000E+00-1.99580E-14-2.48749E-14
 -1         3 1.79486E+02 1.79486E+02 2.41003E+02 0.00000E+00-3.10406E-15-3.68653E-14
 -1         4 1.79486E+02 1.79486E+02 2.41003E+02 0.00000E+00-7.10123E-15 5.41779E-14
 -1         5 1.79486E+02 1.79486E+02 2.41003E+02 0.00000E+00 9.10969E-15-7.78905E-15
 -1         6 1.79486E+02 1.79486E+02 2.41003E+02 0.00000E+00-6.57811E-15 2.66626E-16
 -1         7 1.79486E+02 1.79486E+02 2.41003E+02 0.00000E+00 5.94361E-14 4.34658E-14
 -1         8 1.79486E+02 1.79486E+02 2.41003E+02 0.00000E+00-9.02772E-17-1.15812E-14
 -1         9 1.79503E+02 1.79503E+02 2.41025E+02 0.00000E+00-1.28819E-14-6.29318E-15
 -1        10 1.79503E+02 1.79503E+02 2.41025E+02 0.00000E+00 1.35466E-14 1.18500E-14
 -1        11 1.79503E+02 1.79503E+02 2.41025E+02 0.00000E+00 7.83127E-15 6.88285E-15
 -1        12 1.79503E+02 1.79503E+02 2.41025E+02 0.00000E+00 7.44610E-15 5.28401E-15
 -1        13 1.79503E+02 1.79503E+02 2.41025E+02 0.00000E+00-5.29384E-15-7.79414E-16
 -1        14 1.79503E+02 1.79503E+02 2.41025E+02 0.00000E+00 1.26163E-14 2.75029E-15
 -1        15 1.79503E+02 1.79503E+02 2.41025E+02 0.00000E+00-3.57907E-14 7.66739E-15
 -1        16 1.79503E+02 1.79503E+02 2.41025E+02 0.00000E+00 1.36927E-14 1.28572E-14
 -1        17 1.79503E+02 1.79503E+02 2.41025E+02 0.00000E+00-1.49711E-15 6.99800E-15
 -1        18 1.79503E+02 1.79503E+02 2.41025E+02 0.00000E+00 1.87476E-14-2.41511E-14
 -1        19 1.79503E+02 1.79503E+02 2.41025E+02 0.00000E+00 1.60898E-14-3.44850E-15
 -1        20 1.79503E+02 1.79503E+02 2.41025E+02 0.00000E+00 7.08858E-15 1.37483E-14
 -3
    1PSTEP                       563         113           1          
  100CL  213 193202.3530          20                     0  113           1
 -4  TOSTRAIN    6    1
 -5  EXX         1    4    1    1
 -5  EYY         1    4    2    2
 -5  EZZ         1    4    3    3
 -5  EXY         1    4    1    2
 -5  EYZ         1    4    2    3
 -5  EZX         1    4    3    1
 -1         1 0.00000E+00 0.00000E+00 1.99992E-03 0.00000E+00 4.12546E-19 7.19066E-19
 -1         2 0.00000E+00 0.00000E+00 1.99992E-03 0.00000E+00-6.48839E-19-8.08690E-19
 -1         3 0.00000E+00 0.00000E+00 1.99992E-03 0.00000E+00-1.00914E-19-1.19850E-18
 -1         4 0.00000E+00 0.00000E+00 1.99992E-03 0.00000E+00-2.30863E-19 1.76134E-18
 -1         5 0.00000E+00 0.00000E+00 1.99992E-03 0.00000E+00 2.96159E-19-2.53224E-19
 -1         6 0.00000E+00 0.00000E+00 1.99992E-03 0.00000E+00-2.13856E-19 8.66809E-21
 -1         7 0.00000E+00 0.00000E+00 1.99992E-03 0.00000E+00 1.93228E-18 1.41309E-18
 -1         8 0.00000E+00 0.00000E+00 1.99992E-03 0.00000E+00-2.93494E-21-3.76507E-19
 -1         9 0.00000E+00 0.00000E+00 2.00010E-03 0.00000E+00-4.18795E-19-2.04593E-19
 -1        10 0.00000E+00 0.00000E+00 2.00010E-03 0.00000E+00 4.40404E-19 3.85247E-19
 -1        11 0.00000E+00 0.00000E+00 2.00010E-03 0.00000E+00 2.54597E-19 2.23763E-19
 -1        12 0.00000E+00 0.00000E+00 2.00010E-03 0.00000E+00 2.42075E-19 1.71784E-19
 -1        13 0.00000E+00 0.00000E+00 2.00010E-03 0.00000E+00-1.72104E-19-2.53389E-20
 -1        14 0.00000E+00 0.00000E+00 2.00010E-03 0.00000E+00 4.10158E-19 8.94127E-20
 -1        15 0.00000E+00 0.00000E+00 2.00010E-03 0.00000E+00-1.16356E-18 2.49269E-19
 -1        16 0.00000E+00 0.00000E+00 2.00010E-03 0.00000E+00 4.45153E-19 4.17991E-19
 -1        17 0.00000E+00 0.00000E+00 2.00010E-03 0.00000E+00-4.86716E-20 2.27507E-19
 -1        18 0.00000E+00 0.00000E+00 2.00010E-03 0.00000E+00 6.09490E-19-7.85158E-19
 -1        19 0.00000E+00 0.00000E+00 2.00010E-03 0.00000E+00 5.23083E-19-1.12112E-19
 -1        20 0.00000E+00 0.00000E+00 2.00010E-03 0.00000E+00 2.30452E-19 4.46960E-19
 -3
    1PSTEP                       564         113           1          
  100CL  213 193202.3530          20                     0  113           1
 -4  FORC        4    1
 -5  F1          1    2    1    0
 -5  F2          1    2    2    0
 -5  F3          1    2    3    0
 -5  ALL         1    2    0    0    1ALL
 -1         1-1.49578E+01-1.49578E+01 2.00844E+01
 -1         2-1.49578E+01 1.49578E+01 2.00844E+01
 -1         3-1.49578E+01 1.49578E+01-2.00844E+01
 -1         4-1.49578E+01-1.49578E+01-2.00844E+01
 -1         5 1.49578E+01-1.49578E+01 2.00844E+01
 -1         6 1.49578E+01 1.49578E+01 2.00844E+01
 -1         7 1.49578E+01 1.49578E+01-2.00844E+01
 -1         8 1.49578E+01-1.49578E+01-2.00844E+01
 -1         9 5.98312E+01-8.01455E-15-8.03376E+01
 -1        10 5.98312E+01-5.98312E+01 3.99680E-15
 -1        11 5.98312E+01 1.79730E-15 8.03376E+01
 -1        12 5.98312E+01 5.98312E+01 1.66256E-14
 -1        13-7.56402E-15 5.98312E+01-8.03376E+01
 -1        14 1.27644E-14-5.98312E+01-8.03376E+01
 -1        15 1.89052E-15-5.98312E+01 8.03376E+01
 -1        16-1.09572E-15 5.98312E+01 8.03376E+01
 -1        17-5.98312E+01 3.16577E-15-8.03376E+01
 -1        18-5.98312E+01-5.98312E+01 0.00000E+00
 -1        19-5.98312E+01 1.64902E-16 8.03376E+01
 -1        20-5.98312E+01 5.98312E+01 0.00000E+00
 -3
    1PSTEP                       565         113           1          
  100CL  213 193202.3530          20                     0  113           1
 -4  ERROR       1    1
 -5  STR(%)      1    1    0    0
 -1         1 6.63512E-15
 -1         2 6.63512E-15
 -1         3 6.63512E-15
 -1         4 6.63512E-15
 -1         5 6.63512E-15
 -1         6 6.63512E-15
 -1         7 6.63512E-15
 -1         8 6.63512E-15
 -1         9 6.63512E-15
 -1        10 6.63512E-15
 -1        11 6.63512E-15
 -1        12 6.63512E-15
 -1        13 6.63512E-15
 -1        14 6.63512E-15
 -1        15 6.63512E-15
 -1        16 6.63512E-15
 -1        17 6.63512E-15
 -1        18 6.63512E-15
 -1        19 6.63512E-15
 -1        20 6.63512E-15
 -3
    1PSTEP                       566         114           1          
  100CL  214 195215.2813          20                     0  114           1
 -4  DISP        4    1
 -5  D1          1    2    1    0
 -5  D2          1    2    2    0
 -5  D3          1    2    3    0
 -5  ALL         1    2    0    0    1ALL
 -1         1 0.00000E+00 0.00000E+00 0.00000E+00
 -1         2 0.00000E+00 0.00000E+00 0.00000E+00
 -1         3 0.00000E+00 0.00000E+00 2.00000E-03
 -1         4 0.00000E+00 0.00000E+00 2.00000E-03
 -1         5 0.00000E+00 0.00000E+00 0.00000E+00
 -1         6 0.00000E+00 0.00000E+00 0.00000E+00
 -1         7 0.00000E+00 0.00000E+00 2.00000E-03
 -1         8 0.00000E+00 0.00000E+00 2.00000E-03
 -1         9 0.00000E+00 0.00000E+00 0.00000E+00
 -1        10 0.00000E+00 0.00000E+00 1.00000E-03
 -1        11 0.00000E+00 0.00000E+00 2.00000E-03
 -1        12 0.00000E+00 0.00000E+00 1.00000E-03
 -1        13 0.00000E+00 0.00000E+00 0.00000E+00
 -1        14 0.00000E+00 0.00000E+00 0.00000E+00
 -1        15 0.00000E+00 0.00000E+00 2.00000E-03
 -1        16 0.00000E+00 0.00000E+00 2.00000E-03
 -1        17 0.00000E+00 0.00000E+00 0.00000E+00
 -1        18 0.00000E+00 0.00000E+00 1.00000E-03
 -1        19 0.00000E+00 0.00000E+00 2.00000E-03
 -1        20 0.00000E+00 0.00000E+00 1.00000E-03
 -3
    1PSTEP                       567         114           1          
  100CL  214 195215.2813          20                     0  114           1
 -4  STRESS      6    1
 -5  SXX         1    4    1    1
 -5  SYY         1    4    2    2
 -5  SZZ         1    4    3    3
 -5  SXY         1    4    1    2
 -5  SYZ         1    4    2    3
 -5  SZX         1    4    3    1
 -1         1 1.79651E+02 1.79651E+02 2.40674E+02 0.00000E+00 1.25879E-14 2.19406E-14
 -1         2 1.79651E+02 1.79651E+02 2.40674E+02 0.00000E+00-1.97978E-14-2.46753E-14
 -1         3 1.79651E+02 1.79651E+02 2.40674E+02 0.00000E+00-3.07914E-15-3.65695E-14
 -1         4 1.79651E+02 1.79651E+02 2.40674E+02 0.00000E+00-7.04423E-15 5.37430E-14
 -1         5 1.79651E+02 1.79651E+02 2.40674E+02 0.00000E+00 9.03658E-15-7.72654E-15
 -1         6 1.79651E+02 1.79651E+02 2.40674E+02 0.00000E+00-6.52532E-15 2.64486E-16
 -1         7 1.79651E+02 1.79651E+02 2.40674E+02 0.00000E+00 5.89590E-14 4.31170E-14
 -1         8 1.79651E+02 1.79651E+02 2.40674E+02 0.00000E+00-8.95526E-17-1.14882E-14
 -1         9 1.79667E+02 1.79667E+02 2.40696E+02 0.00000E+00-1.27785E-14-6.24267E-15
 -1        10 1.79667E+02 1.79667E+02 2.40696E+02 0.00000E+00 1.34379E-14 1.17549E-14
 -1        11 1.79667E+02 1.79667E+02 2.40696E+02 0.00000E+00 7.76841E-15 6.82761E-15
 -1        12 1.79667E+02 1.79667E+02 2.40696E+02 0.00000E+00 7.38634E-15 5.24160E-15
 -1        13 1.79667E+02 1.79667E+02 2.40696E+02 0.00000E+00-5.25135E-15-7.73158E-16
 -1        14 1.79667E+02 1.79667E+02 2.40696E+02 0.00000E+00 1.25150E-14 2.72822E-15
 -1        15 1.79667E+02 1.79667E+02 2.40696E+02 0.00000E+00-3.55034E-14 7.60585E-15
 -1        16 1.79667E+02 1.79667E+02 2.40696E+02 0.00000E+00 1.35828E-14 1.27540E-14
 -1        17 1.79667E+02 1.79667E+02 2.40696E+02 0.00000E+00-1.48510E-15 6.94184E-15
 -1        18 1.79667E+02 1.79667E+02 2.40696E+02 0.00000E+00 1.85972E-14-2.39573E-14
 -1        19 1.79667E+02 1.79667E+02 2.40696E+02 0.00000E+00 1.59606E-14-3.42082E-15
 -1        20 1.79667E+02 1.79667E+02 2.40696E+02 0.00000E+00 7.03169E-15 1.36379E-14
 -3
    1PSTEP                       568         114           1          
  100CL  214 195215.2813          20                     0  114           1
 -4  TOSTRAIN    6    1
 -5  EXX         1    4    1    1
 -5  EYY         1    4    2    2
 -5  EZZ         1    4    3    3
 -5  EXY         1    4    1    2
 -5  EYZ         1    4    2    3
 -5  EZX         1    4    3    1
 -1         1 0.00000E+00 0.00000E+00 1.99992E-03 0.00000E+00 4.12546E-19 7.19066E-19
 -1         2 0.00000E+00 0.00000E+00 1.99992E-03 0.00000E+00-6.48839E-19-8.08690E-19
 -1         3 0.00000E+00 0.00000E+00 1.99992E-03 0.00000E+00-1.00914E-19-1.19850E-18
 -1         4 0.00000E+00 0.00000E+00 1.99992E-03 0.00000E+00-2.30863E-19 1.76134E-18
 -1         5 0.00000E+00 0.00000E+00 1.99992E-03 0.00000E+00 2.96159E-19-2.53224E-19
 -1         6 0.00000E+00 0.00000E+00 1.99992E-03 0.00000E+00-2.13856E-19 8.66809E-21
 -1         7 0.00000E+00 0.00000E+00 1.99992E-03 0.00000E+00 1.93228E-18 1.41309E-18
 -1         8 0.00000E+00 0.00000E+00 1.99992E-03 0.00000E+00-2.93494E-21-3.76507E-19
 -1         9 0.00000E+00 0.00000E+00 2.00010E-03 0.00000E+00-4.18795E-19-2.04593E-19
 -1        10 0.00000E+00 0.00000E+00 2.00010E-03 0.00000E+00 4.40404E-19 3.85247E-19
 -1        11 0.00000E+00 0.00000E+00 2.00010E-03 0.00000E+00 2.54597E-19 2.23763E-19
 -1        12 0.00000E+00 0.00000E+00 2.00010E-03 0.00000E+00 2.42075E-19 1.71784E-19
 -1        13 0.00000E+00 0.00000E+00 2.00010E-03 0.00000E+00-1.72104E-19-2.53389E-20
 -1        14 0.00000E+00 0.00000E+00 2.00010E-03 0.00000E+00 4.10158E-19 8.94127E-20
 -1        15 0.00000E+00 0.00000E+00 2.00010E-03 0.00000E+00-1.16356E-18 2.49269E-19
 -1        16 0.00000E+00 0.00000E+00 2.00010E-03 0.00000E+00 4.45153E-19 4.17991E-19
 -1        17 0.00000E+00 0.00000E+00 2.00010E-03 0.00000E+00-4.86716E-20 2.27507E-19
 -1        18 0.00000E+00 0.00000E+00 2.00010E-03 0.00000E+00 6.09490E-19-7.85158E-19
 -1        19 0.00000E+00 0.00000E+00 2.00010E-03 0.00000E+00 5.23083E-19-1.12112E-19
 -1        20 0.00000E+00 0.00000E+00 2.00010E-03 0.00000E+00 2.30452E-19 4.46960E-19
 -3
    1PSTEP                       569         114           1          
  100CL  214 195215.2813          20                     0  114           1
 -4  FORC        4    1
 -5  F1          1    2    1    0
 -5  F2          1    2    2    0
 -5  F3          1    2    3    0
 -5  ALL         1    2    0    0    1ALL
 -1         1-1.49715E+01-1.49715E+01 2.00570E+01
 -1         2-1.49715E+01 1.49715E+01 2.00570E+01
 -1         3-1.49715E+01 1.49715E+01-2.00570E+01
 -1         4-1.49715E+01-1.49715E+01-2.00570E+01
 -1         5 1.49715E+01-1.49715E+01 2.00570E+01
 -1         6 1.49715E+01 1.49715E+01 2.00570E+01
 -1         7 1.49715E+01 1.49715E+01-2.00570E+01
 -1         8 1.49715E+01-1.49715E+01-2.00570E+01
 -1         9 5.98861E+01-6.21027E-15-8.02278E+01
 -1        10 5.98861E+01-5.98861E+01 7.77156E-15
 -1        11 5.98861E+01 5.79394E-15 8.02278E+01
 -1        12 5.98861E+01 5.98861E+01 1.87628E-14
 -1        13-5.62101E-15 5.98861E+01-8.02278E+01
 -1        14 9.65672E-15-5.98861E+01-8.02278E+01
 -1        15 1.25477E-14-5.98861E+01 8.02278E+01
 -1        16-6.64695E-15 5.98861E+01 8.02278E+01
 -1        17-5.98861E+01 1.39073E-15-8.02278E+01
 -1        18-5.98861E+01-5.98861E+01 7.10543E-15
 -1        19-5.98861E+01 1.93994E-15 8.02278E+01
 -1        20-5.98861E+01 5.98861E+01 6.88338E-15
 -3
    1PSTEP                       570         114           1          
  100CL  214 195215.2813          20                     0  114           1
 -4  ERROR       1    1
 -5  STR(%)      1    1    0    0
 -1         1 3.02009E-14
 -1         2 3.02009E-14
 -1         3 3.02009E-14
 -1         4 3.02009E-14
 -1         5 3.02009E-14
 -1         6 3.02009E-14
 -1         7 3.02009E-14
 -1         8 3.02009E-14
 -1         9 3.02009E-14
 -1        10 3.02009E-14
 -1        11 3.02009E-14
 -1        12 3.02009E-14
 -1        13 3.02009E-14
 -1        14 3.02009E-14
 -1        15 3.02009E-14
 -1        16 3.02009E-14
 -1        17 3.02009E-14
 -1        18 3.02009E-14
 -1        19 3.02009E-14
 -1        20 3.02009E-14
 -3
    1PSTEP                       571         115           1          
  100CL  215 197228.2096          20                     0  115           1
 -4  DISP        4    1
 -5  D1          1    2    1    0
 -5  D2          1    2    2    0
 -5  D3          1    2    3    0
 -5  ALL         1    2    0    0    1ALL
 -1         1 0.00000E+00 0.00000E+00 0.00000E+00
 -1         2 0.00000E+00 0.00000E+00 0.00000E+00
 -1         3 0.00000E+00 0.00000E+00 2.00000E-03
 -1         4 0.00000E+00 0.00000E+00 2.00000E-03
 -1         5 0.00000E+00 0.00000E+00 0.00000E+00
 -1         6 0.00000E+00 0.00000E+00 0.00000E+00
 -1         7 0.00000E+00 0.00000E+00 2.00000E-03
 -1         8 0.00000E+00 0.00000E+00 2.00000E-03
 -1         9 0.00000E+00 0.00000E+00 0.00000E+00
 -1        10 0.00000E+00 0.00000E+00 1.00000E-03
 -1        11 0.00000E+00 0.00000E+00 2.00000E-03
 -1        12 0.00000E+00 0.00000E+00 1.00000E-03
 -1        13 0.00000E+00 0.00000E+00 0.00000E+00
 -1        14 0.00000E+00 0.00000E+00 0.00000E+00
 -1        15 0.00000E+00 0.00000E+00 2.00000E-03
 -1        16 0.00000E+00 0.00000E+00 2.00000E-03
 -1        17 0.00000E+00 0.00000E+00 0.00000E+00
 -1        18 0.00000E+00 0.00000E+00 1.00000E-03
 -1        19 0.00000E+00 0.00000E+00 2.00000E-03
 -1        20 0.00000E+00 0.00000E+00 1.00000E-03
 -3
    1PSTEP                       572         115           1          
  100CL  215 197228.2096          20                     0  115           1
 -4  STRESS      6    1
 -5  SXX         1    4    1    1
 -5  SYY         1    4    2    2
 -5  SZZ         1    4    3    3
 -5  SXY         1    4    1    2
 -5  SYZ         1    4    2    3
 -5  SZX         1    4    3    1
 -1         1 1.79814E+02 1.79814E+02 2.40347E+02 0.00000E+00 1.24868E-14 2.17645E-14
 -1         2 1.79814E+02 1.79814E+02 2.40347E+02 0.00000E+00-1.96389E-14-2.44772E-14
 -1         3 1.79814E+02 1.79814E+02 2.40347E+02 0.00000E+00-3.05443E-15-3.62760E-14
 -1         4 1.79814E+02 1.79814E+02 2.40347E+02 0.00000E+00-6.98770E-15 5.33117E-14
 -1         5 1.79814E+02 1.79814E+02 2.40347E+02 0.00000E+00 8.96405E-15-7.66453E-15
 -1         6 1.79814E+02 1.79814E+02 2.40347E+02 0.00000E+00-6.47295E-15 2.62364E-16
 -1         7 1.79814E+02 1.79814E+02 2.40347E+02 0.00000E+00 5.84859E-14 4.27709E-14
 -1         8 1.79814E+02 1.79814E+02 2.40347E+02 0.00000E+00-8.88339E-17-1.13960E-14
 -1         9 1.79830E+02 1.79830E+02 2.40369E+02 0.00000E+00-1.26760E-14-6.19257E-15
 -1        10 1.79830E+02 1.79830E+02 2.40369E+02 0.00000E+00 1.33301E-14 1.16606E-14
 -1        11 1.79830E+02 1.79830E+02 2.40369E+02 0.00000E+00 7.70607E-15 6.77281E-15
 -1        12 1.79830E+02 1.79830E+02 2.40369E+02 0.00000E+00 7.32706E-15 5.19953E-15
 -1        13 1.79830E+02 1.79830E+02 2.40369E+02 0.00000E+00-5.20921E-15-7.66953E-16
 -1        14 1.79830E+02 1.79830E+02 2.40369E+02 0.00000E+00 1.24146E-14 2.70632E-15
 -1        15 1.79830E+02 1.79830E+02 2.40369E+02 0.00000E+00-3.52185E-14 7.54481E-15
 -1        16 1.79830E+02 1.79830E+02 2.40369E+02 0.00000E+00 1.34738E-14 1.26516E-14
 -1        17 1.79830E+02 1.79830E+02 2.40369E+02 0.00000E+00-1.47318E-15 6.88613E-15
 -1        18 1.79830E+02 1.79830E+02 2.40369E+02 0.00000E+00 1.84479E-14-2.37650E-14
 -1        19 1.79830E+02 1.79830E+02 2.40369E+02 0.00000E+00 1.58325E-14-3.39337E-15
 -1        20 1.79830E+02 1.79830E+02 2.40369E+02 0.00000E+00 6.97525E-15 1.35285E-14
 -3
    1PSTEP                       573         115           1          
  100CL  215 197228.2096          20                     0  115           1
 -4  TOSTRAIN    6    1
 -5  EXX         1    4    1    1
 -5  EYY         1    4    2    2
 -5  EZZ         1    4    3    3
 -5  EXY         1    4    1    2
 -5  EYZ         1    4    2    3
 -5  EZX         1    4    3    1
 -1         1 0.00000E+00 0.00000E+00 1.99992E-03 0.00000E+00 4.12546E-19 7.19066E-19
 -1         2 0.00000E+00 0.00000E+00 1.99992E-03 0.00000E+00-6.48839E-19-8.08690E-19
 -1         3 0.00000E+00 0.00000E+00 1.99992E-03 0.00000E+00-1.00914E-19-1.19850E-18
 -1         4 0.00000E+00 0.00000E+00 1.99992E-03 0.00000E+00-2.30863E-19 1.76134E-18
 -1         5 0.00000E+00 0.00000E+00 1.99992E-03 0.00000E+00 2.96159E-19-2.53224E-19
 -1         6 0.00000E+00 0.00000E+00 1.99992E-03 0.00000E+00-2.13856E-19 8.66809E-21
 -1         7 0.00000E+00 0.00000E+00 1.99992E-03 0.00000E+00 1.93228E-18 1.41309E-18
 -1         8 0.00000E+00 0.00000E+00 1.99992E-03 0.00000E+00-2.93494E-21-3.76507E-19
 -1         9 0.00000E+00 0.00000E+00 2.00010E-03 0.00000E+00-4.18795E-19-2.04593E-19
 -1        10 0.00000E+00 0.00000E+00 2.00010E-03 0.00000E+00 4.40404E-19 3.85247E-19
 -1        11 0.00000E+00 0.00000E+00 2.00010E-03 0.00000E+00 2.54597E-19 2.23763E-19
 -1        12 0.00000E+00 0.00000E+00 2.00010E-03 0.00000E+00 2.42075E-19 1.71784E-19
 -1        13 0.00000E+00 0.00000E+00 2.00010E-03 0.00000E+00-1.72104E-19-2.53389E-20
 -1        14 0.00000E+00 0.00000E+00 2.00010E-03 0.00000E+00 4.10158E-19 8.94127E-20
 -1        15 0.00000E+00 0.00000E+00 2.00010E-03 0.00000E+00-1.16356E-18 2.49269E-19
 -1        16 0.00000E+00 0.00000E+00 2.00010E-03 0.00000E+00 4.45153E-19 4.17991E-19
 -1        17 0.00000E+00 0.00000E+00 2.00010E-03 0.00000E+00-4.86716E-20 2.27507E-19
 -1        18 0.00000E+00 0.00000E+00 2.00010E-03 0.00000E+00 6.09490E-19-7.85158E-19
 -1        19 0.00000E+00 0.00000E+00 2.00010E-03 0.00000E+00 5.23083E-19-1.12112E-19
 -1        20 0.00000E+00 0.00000E+00 2.00010E-03 0.00000E+00 2.30452E-19 4.46960E-19
 -3
    1PSTEP                       574         115           1          
  100CL  215 197228.2096          20                     0  115           1
 -4  FORC        4    1
 -5  F1          1    2    1    0
 -5  F2          1    2    2    0
 -5  F3          1    2    3    0
 -5  ALL         1    2    0    0    1ALL
 -1         1-1.49851E+01-1.49851E+01 2.00298E+01
 -1         2-1.49851E+01 1.49851E+01 2.00298E+01
 -1         3-1.49851E+01 1.49851E+01-2.00298E+01
 -1         4-1.49851E+01-1.49851E+01-2.00298E+01
 -1         5 1.49851E+01-1.49851E+01 2.00298E+01
 -1         6 1.49851E+01 1.49851E+01 2.00298E+01
 -1         7 1.49851E+01 1.49851E+01-2.00298E+01
 -1         8 1.49851E+01-1.49851E+01-2.00298E+01
 -1         9 5.99405E+01-8.20850E-15-8.01190E+01
 -1        10 5.99405E+01-5.99405E+01 9.10383E-15
 -1        11 5.99405E+01 5.79377E-15 8.01190E+01
 -1        12 5.99405E+01 5.99405E+01 1.75970E-14
 -1        13-6.53683E-15 5.99405E+01-8.01190E+01
 -1        14 1.12119E-14-5.99405E+01-8.01190E+01
 -1        15 3.66505E-15-5.99405E+01 8.01190E+01
 -1        16 2.90085E-15 5.99405E+01 8.01190E+01
 -1        17-5.99405E+01 3.16840E-15-8.01190E+01
 -1        18-5.99405E+01-5.99405E+01 1.77636E-15
 -1        19-5.99405E+01 5.49134E-15 8.01190E+01
 -1        20-5.99405E+01 5.99405E+01 9.32587E-15
 -3
    1PSTEP                       575         115           1          
  100CL  215 197228.2096          20                     0  115           1
 -4  ERROR       1    1
 -5  STR(%)      1    1    0    0
 -1         1 3.99193E-14
 -1         2 3.99193E-14
 -1         3 3.99193E-14
 -1         4 3.99193E-14
 -1         5 3.99193E-14
 -1         6 3.99193E-14
 -1         7 3.99193E-14
 -1         8 3.99193E-14
 -1         9 3.99193E-14
 -1        10 3.99193E-14
 -1        11 3.99193E-14
 -1        12 3.99193E-14
 -1        13 3.99193E-14
 -1        14 3.99193E-14
 -1        15 3.99193E-14
 -1        16 3.99193E-14
 -1        17 3.99193E-14
 -1        18 3.99193E-14
 -1        19 3.99193E-14
 -1        20 3.99193E-14
 -3
    1PSTEP                       576         116           1          
  100CL  216 200247.6020          20                     0  116           1
 -4  DISP        4    1
 -5  D1          1    2    1    0
 -5  D2          1    2    2    0
 -5  D3          1    2    3    0
 -5  ALL         1    2    0    0    1ALL
 -1         1 0.00000E+00 0.00000E+00 0.00000E+00
 -1         2 0.00000E+00 0.00000E+00 0.00000E+00
 -1         3 0.00000E+00 0.00000E+00 2.00000E-03
 -1         4 0.00000E+00 0.00000E+00 2.00000E-03
 -1         5 0.00000E+00 0.00000E+00 0.00000E+00
 -1         6 0.00000E+00 0.00000E+00 0.00000E+00
 -1         7 0.00000E+00 0.00000E+00 2.00000E-03
 -1         8 0.00000E+00 0.00000E+00 2.00000E-03
 -1         9 0.00000E+00 0.00000E+00 0.00000E+00
 -1        10 0.00000E+00 0.00000E+00 1.00000E-03
 -1        11 0.00000E+00 0.00000E+00 2.00000E-03
 -1        12 0.00000E+00 0.00000E+00 1.00000E-03
 -1        13 0.00000E+00 0.00000E+00 0.00000E+00
 -1        14 0.00000E+00 0.00000E+00 0.00000E+00
 -1        15 0.00000E+00 0.00000E+00 2.00000E-03
 -1        16 0.00000E+00 0.00000E+00 2.00000E-03
 -1        17 0.00000E+00 0.00000E+00 0.00000E+00
 -1        18 0.00000E+00 0.00000E+00 1.00000E-03
 -1        19 0.00000E+00 0.00000E+00 2.00000E-03
 -1        20 0.00000E+00 0.00000E+00 1.00000E-03
 -3
    1PSTEP                       577         116           1          
  100CL  216 200247.6020          20                     0  116           1
 -4  STRESS      6    1
 -5  SXX         1    4    1    1
 -5  SYY         1    4    2    2
 -5  SZZ         1    4    3    3
 -5  SXY         1    4    1    2
 -5  SYZ         1    4    2    3
 -5  SZX         1    4    3    1
 -1         1 1.80056E+02 1.80056E+02 2.39864E+02 0.00000E+00 1.23371E-14 2.15035E-14
 -1         2 1.80056E+02 1.80056E+02 2.39864E+02 0.00000E+00-1.94034E-14-2.41837E-14
 -1         3 1.80056E+02 1.80056E+02 2.39864E+02 0.00000E+00-3.01781E-15-3.58410E-14
 -1         4 1.80056E+02 1.80056E+02 2.39864E+02 0.00000E+00-6.90391E-15 5.26725E-14
 -1         5 1.80056E+02 1.80056E+02 2.39864E+02 0.00000E+00 8.85657E-15-7.57263E-15
 -1         6 1.80056E+02 1.80056E+02 2.39864E+02 0.00000E+00-6.39533E-15 2.59218E-16
 -1         7 1.80056E+02 1.80056E+02 2.39864E+02 0.00000E+00 5.77846E-14 4.22581E-14
 -1         8 1.80056E+02 1.80056E+02 2.39864E+02 0.00000E+00-8.77687E-17-1.12594E-14
 -1         9 1.80072E+02 1.80072E+02 2.39885E+02 0.00000E+00-1.25240E-14-6.11832E-15
 -1        10 1.80072E+02 1.80072E+02 2.39885E+02 0.00000E+00 1.31702E-14 1.15207E-14
 -1        11 1.80072E+02 1.80072E+02 2.39885E+02 0.00000E+00 7.61366E-15 6.69160E-15
 -1        12 1.80072E+02 1.80072E+02 2.39885E+02 0.00000E+00 7.23920E-15 5.13718E-15
 -1        13 1.80072E+02 1.80072E+02 2.39885E+02 0.00000E+00-5.14674E-15-7.57757E-16
 -1        14 1.80072E+02 1.80072E+02 2.39885E+02 0.00000E+00 1.22657E-14 2.67387E-15
 -1        15 1.80072E+02 1.80072E+02 2.39885E+02 0.00000E+00-3.47962E-14 7.45434E-15
 -1        16 1.80072E+02 1.80072E+02 2.39885E+02 0.00000E+00 1.33122E-14 1.24999E-14
 -1        17 1.80072E+02 1.80072E+02 2.39885E+02 0.00000E+00-1.45552E-15 6.80356E-15
 -1        18 1.80072E+02 1.80072E+02 2.39885E+02 0.00000E+00 1.82267E-14-2.34800E-14
 -1        19 1.80072E+02 1.80072E+02 2.39885E+02 0.00000E+00 1.56427E-14-3.35268E-15
 -1        20 1.80072E+02 1.80072E+02 2.39885E+02 0.00000E+00 6.89161E-15 1.33663E-14
 -3
    1PSTEP                       578         116           1          
  100CL  216 200247.6020          20                     0  116           1
 -4  TOSTRAIN    6    1
 -5  EXX         1    4    1    1
 -5  EYY         1    4    2    2
 -5  EZZ         1    4    3    3
 -5  EXY         1    4    1    2
 -5  EYZ         1    4    2    3
 -5  EZX         1    4    3    1
 -1         1 0.00000E+00 0.00000E+00 1.99992E-03 0.00000E+00 4.12546E-19 7.19066E-19
 -1         2 0.00000E+00 0.00000E+00 1.99992E-03 0.00000E+00-6.48839E-19-8.08690E-19
 -1         3 0.00000E+00 0.00000E+00 1.99992E-03 0.00000E+00-1.00914E-19-1.19850E-18
 -1         4 0.00000E+00 0.00000E+00 1.99992E-03 0.00000E+00-2.30863E-19 1.76134E-18
 -1         5 0.00000E+00 0.00000E+00 1.99992E-03 0.00000E+00 2.96159E-19-2.53224E-19
 -1         6 0.00000E+00 0.00000E+00 1.99992E-03 0.00000E+00-2.13856E-19 8.66809E-21
 -1         7 0.00000E+00 0.00000E+00 1.99992E-03 0.00000E+00 1.93228E-18 1.41309E-18
 -1         8 0.00000E+00 0.00000E+00 1.99992E-03 0.00000E+00-2.93494E-21-3.76507E-19
 -1         9 0.00000E+00 0.00000E+00 2.00010E-03 0.00000E+00-4.18795E-19-2.04593E-19
 -1        10 0.00000E+00 0.00000E+00 2.00010E-03 0.00000E+00 4.40404E-19 3.85247E-19
 -1        11 0.00000E+00 0.00000E+00 2.00010E-03 0.00000E+00 2.54597E-19 2.23763E-19
 -1        12 0.00000E+00 0.00000E+00 2.00010E-03 0.00000E+00 2.42075E-19 1.71784E-19
 -1        13 0.00000E+00 0.00000E+00 2.00010E-03 0.00000E+00-1.72104E-19-2.53389E-20
 -1        14 0.00000E+00 0.00000E+00 2.00010E-03 0.00000E+00 4.10158E-19 8.94127E-20
 -1        15 0.00000E+00 0.00000E+00 2.00010E-03 0.00000E+00-1.16356E-18 2.49269E-19
 -1        16 0.00000E+00 0.00000E+00 2.00010E-03 0.00000E+00 4.45153E-19 4.17991E-19
 -1        17 0.00000E+00 0.00000E+00 2.00010E-03 0.00000E+00-4.86716E-20 2.27507E-19
 -1        18 0.00000E+00 0.00000E+00 2.00010E-03 0.00000E+00 6.09490E-19-7.85158E-19
 -1        19 0.00000E+00 0.00000E+00 2.00010E-03 0.00000E+00 5.23083E-19-1.12112E-19
 -1        20 0.00000E+00 0.00000E+00 2.00010E-03 0.00000E+00 2.30452E-19 4.46960E-19
 -3
    1PSTEP                       579         116           1          
  100CL  216 200247.6020          20                     0  116           1
 -4  FORC        4    1
 -5  F1          1    2    1    0
 -5  F2          1    2    2    0
 -5  F3          1    2    3    0
 -5  ALL         1    2    0    0    1ALL
 -1         1-1.50053E+01-1.50053E+01 1.99894E+01
 -1         2-1.50053E+01 1.50053E+01 1.99894E+01
 -1         3-1.50053E+01 1.50053E+01-1.99894E+01
 -1         4-1.50053E+01-1.50053E+01-1.99894E+01
 -1         5 1.50053E+01-1.50053E+01 1.99894E+01
 -1         6 1.50053E+01 1.50053E+01 1.99894E+01
 -1         7 1.50053E+01 1.50053E+01-1.99894E+01
 -1         8 1.50053E+01-1.50053E+01-1.99894E+01
 -1         9 6.00211E+01-6.65395E-15-7.99577E+01
 -1        10 6.00211E+01-6.00211E+01 7.54952E-15
 -1        11 6.00211E+01 1.79672E-15 7.99577E+01
 -1        12 6.00211E+01 6.00211E+01 1.72362E-14
 -1        13-9.72855E-15 6.00211E+01-7.99577E+01
 -1        14 7.88261E-15-6.00211E+01-7.99577E+01
 -1        15-1.66537E-15-6.00211E+01 7.99577E+01
 -1        16-8.20155E-15 6.00211E+01 7.99577E+01
 -1        17-6.00211E+01 3.17035E-15-7.99577E+01
 -1        18-6.00211E+01-6.00211E+01 5.32907E-15
 -1        19-6.00211E+01 1.93668E-15 7.99577E+01
 -1        20-6.00211E+01 6.00211E+01 6.88338E-15
 -3
    1PSTEP                       580         116           1          
  100CL  216 200247.6020          20                     0  116           1
 -4  ERROR       1    1
 -5  STR(%)      1    1    0    0
 -1         1 1.39393E-14
 -1         2 1.39393E-14
 -1         3 1.39393E-14
 -1         4 1.39393E-14
 -1         5 1.39393E-14
 -1         6 1.39393E-14
 -1         7 1.39393E-14
 -1         8 1.39393E-14
 -1         9 1.39393E-14
 -1        10 1.39393E-14
 -1        11 1.39393E-14
 -1        12 1.39393E-14
 -1        13 1.39393E-14
 -1        14 1.39393E-14
 -1        15 1.39393E-14
 -1        16 1.39393E-14
 -1        17 1.39393E-14
 -1        18 1.39393E-14
 -1        19 1.39393E-14
 -1        20 1.39393E-14
 -3
    1PSTEP                       581         117           1          
  100CL  217 202225.2514          20                     0  117           1
 -4  DISP        4    1
 -5  D1          1    2    1    0
 -5  D2          1    2    2    0
 -5  D3          1    2    3    0
 -5  ALL         1    2    0    0    1ALL
 -1         1 0.00000E+00 0.00000E+00 0.00000E+00
 -1         2 0.00000E+00 0.00000E+00 0.00000E+00
 -1         3 0.00000E+00 0.00000E+00 2.00000E-03
 -1         4 0.00000E+00 0.00000E+00 2.00000E-03
 -1         5 0.00000E+00 0.00000E+00 0.00000E+00
 -1         6 0.00000E+00 0.00000E+00 0.00000E+00
 -1         7 0.00000E+00 0.00000E+00 2.00000E-03
 -1         8 0.00000E+00 0.00000E+00 2.00000E-03
 -1         9 0.00000E+00 0.00000E+00 0.00000E+00
 -1        10 0.00000E+00 0.00000E+00 1.00000E-03
 -1        11 0.00000E+00 0.00000E+00 2.00000E-03
 -1        12 0.00000E+00 0.00000E+00 1.00000E-03
 -1        13 0.00000E+00 0.00000E+00 0.00000E+00
 -1        14 0.00000E+00 0.00000E+00 0.00000E+00
 -1        15 0.00000E+00 0.00000E+00 2.00000E-03
 -1        16 0.00000E+00 0.00000E+00 2.00000E-03
 -1        17 0.00000E+00 0.00000E+00 0.00000E+00
 -1        18 0.00000E+00 0.00000E+00 1.00000E-03
 -1        19 0.00000E+00 0.00000E+00 2.00000E-03
 -1        20 0.00000E+00 0.00000E+00 1.00000E-03
 -3
    1PSTEP                       582         117           1          
  100CL  217 202225.2514          20                     0  117           1
 -4  STRESS      6    1
 -5  SXX         1    4    1    1
 -5  SYY         1    4    2    2
 -5  SZZ         1    4    3    3
 -5  SXY         1    4    1    2
 -5  SYZ         1    4    2    3
 -5  SZX         1    4    3    1
 -1         1 1.80213E+02 1.80213E+02 2.39549E+02 0.00000E+00 1.22398E-14 2.13339E-14
 -1         2 1.80213E+02 1.80213E+02 2.39549E+02 0.00000E+00-1.92504E-14-2.39930E-14
 -1         3 1.80213E+02 1.80213E+02 2.39549E+02 0.00000E+00-2.99401E-15-3.55583E-14
 -1         4 1.80213E+02 1.80213E+02 2.39549E+02 0.00000E+00-6.84946E-15 5.22571E-14
 -1         5 1.80213E+02 1.80213E+02 2.39549E+02 0.00000E+00 8.78672E-15-7.51291E-15
 -1         6 1.80213E+02 1.80213E+02 2.39549E+02 0.00000E+00-6.34490E-15 2.57174E-16
 -1         7 1.80213E+02 1.80213E+02 2.39549E+02 0.00000E+00 5.73289E-14 4.19248E-14
 -1         8 1.80213E+02 1.80213E+02 2.39549E+02 0.00000E+00-8.70766E-17-1.11706E-14
 -1         9 1.80230E+02 1.80230E+02 2.39571E+02 0.00000E+00-1.24252E-14-6.07006E-15
 -1        10 1.80230E+02 1.80230E+02 2.39571E+02 0.00000E+00 1.30664E-14 1.14299E-14
 -1        11 1.80230E+02 1.80230E+02 2.39571E+02 0.00000E+00 7.55362E-15 6.63883E-15
 -1        12 1.80230E+02 1.80230E+02 2.39571E+02 0.00000E+00 7.18211E-15 5.09667E-15
 -1        13 1.80230E+02 1.80230E+02 2.39571E+02 0.00000E+00-5.10616E-15-7.51781E-16
 -1        14 1.80230E+02 1.80230E+02 2.39571E+02 0.00000E+00 1.21690E-14 2.65278E-15
 -1        15 1.80230E+02 1.80230E+02 2.39571E+02 0.00000E+00-3.45218E-14 7.39556E-15
 -1        16 1.80230E+02 1.80230E+02 2.39571E+02 0.00000E+00 1.32072E-14 1.24014E-14
 -1        17 1.80230E+02 1.80230E+02 2.39571E+02 0.00000E+00-1.44404E-15 6.74990E-15
 -1        18 1.80230E+02 1.80230E+02 2.39571E+02 0.00000E+00 1.80830E-14-2.32948E-14
 -1        19 1.80230E+02 1.80230E+02 2.39571E+02 0.00000E+00 1.55193E-14-3.32624E-15
 -1        20 1.80230E+02 1.80230E+02 2.39571E+02 0.00000E+00 6.83726E-15 1.32608E-14
 -3
    1PSTEP                       583         117           1          
  100CL  217 202225.2514          20                     0  117           1
 -4  TOSTRAIN    6    1
 -5  EXX         1    4    1    1
 -5  EYY         1    4    2    2
 -5  EZZ         1    4    3    3
 -5  EXY         1    4    1    2
 -5  EYZ         1    4    2    3
 -5  EZX         1    4    3    1
 -1         1 0.00000E+00 0.00000E+00 1.99992E-03 0.00000E+00 4.12546E-19 7.19066E-19
 -1         2 0.00000E+00 0.00000E+00 1.99992E-03 0.00000E+00-6.48839E-19-8.08690E-19
 -1         3 0.00000E+00 0.00000E+00 1.99992E-03 0.00000E+00-1.00914E-19-1.19850E-18
 -1         4 0.00000E+00 0.00000E+00 1.99992E-03 0.00000E+00-2.30863E-19 1.76134E-18
 -1         5 0.00000E+00 0.00000E+00 1.99992E-03 0.00000E+00 2.96159E-19-2.53224E-19
 -1         6 0.00000E+00 0.00000E+00 1.99992E-03 0.00000E+00-2.13856E-19 8.66809E-21
 -1         7 0.00000E+00 0.00000E+00 1.99992E-03 0.00000E+00 1.93228E-18 1.41309E-18
 -1         8 0.00000E+00 0.00000E+00 1.99992E-03 0.00000E+00-2.93494E-21-3.76507E-19
 -1         9 0.00000E+00 0.00000E+00 2.00010E-03 0.00000E+00-4.18795E-19-2.04593E-19
 -1        10 0.00000E+00 0.00000E+00 2.00010E-03 0.00000E+00 4.40404E-19 3.85247E-19
 -1        11 0.00000E+00 0.00000E+00 2.00010E-03 0.00000E+00 2.54597E-19 2.23763E-19
 -1        12 0.00000E+00 0.00000E+00 2.00010E-03 0.00000E+00 2.42075E-19 1.71784E-19
 -1        13 0.00000E+00 0.00000E+00 2.00010E-03 0.00000E+00-1.72104E-19-2.53389E-20
 -1        14 0.00000E+00 0.00000E+00 2.00010E-03 0.00000E+00 4.10158E-19 8.94127E-20
 -1        15 0.00000E+00 0.00000E+00 2.00010E-03 0.00000E+00-1.16356E-18 2.49269E-19
 -1        16 0.00000E+00 0.00000E+00 2.00010E-03 0.00000E+00 4.45153E-19 4.17991E-19
 -1        17 0.00000E+00 0.00000E+00 2.00010E-03 0.00000E+00-4.86716E-20 2.27507E-19
 -1        18 0.00000E+00 0.00000E+00 2.00010E-03 0.00000E+00 6.09490E-19-7.85158E-19
 -1        19 0.00000E+00 0.00000E+00 2.00010E-03 0.00000E+00 5.23083E-19-1.12112E-19
 -1        20 0.00000E+00 0.00000E+00 2.00010E-03 0.00000E+00 2.30452E-19 4.46960E-19
 -3
    1PSTEP                       584         117           1          
  100CL  217 202225.2514          20                     0  117           1
 -4  FORC        4    1
 -5  F1          1    2    1    0
 -5  F2          1    2    2    0
 -5  F3          1    2    3    0
 -5  ALL         1    2    0    0    1ALL
 -1         1-1.50184E+01-1.50184E+01 1.99632E+01
 -1         2-1.50184E+01 1.50184E+01 1.99632E+01
 -1         3-1.50184E+01 1.50184E+01-1.99632E+01
 -1         4-1.50184E+01-1.50184E+01-1.99632E+01
 -1         5 1.50184E+01-1.50184E+01 1.99632E+01
 -1         6 1.50184E+01 1.50184E+01 1.99632E+01
 -1         7 1.50184E+01 1.50184E+01-1.99632E+01
 -1         8 1.50184E+01-1.50184E+01-1.99632E+01
 -1         9 6.00736E+01-9.09628E-15-7.98529E+01
 -1        10 6.00736E+01-6.00736E+01 1.08802E-14
 -1        11 6.00736E+01 5.57132E-15 7.98529E+01
 -1        12 6.00736E+01 6.00736E+01 1.93179E-14
 -1        13-9.14557E-15 6.00736E+01-7.98529E+01
 -1        14 5.44100E-15-6.00736E+01-7.98529E+01
 -1        15 1.10115E-16-6.00736E+01 7.98529E+01
 -1        16 6.23124E-15 6.00736E+01 7.98529E+01
 -1        17-6.00736E+01 3.17161E-15-7.98529E+01
 -1        18-6.00736E+01-6.00736E+01 1.77636E-15
 -1        19-6.00736E+01 1.93541E-15 7.98529E+01
 -1        20-6.00736E+01 6.00736E+01 3.99680E-15
 -3
    1PSTEP                       585         117           1          
  100CL  217 202225.2514          20                     0  117           1
 -4  ERROR       1    1
 -5  STR(%)      1    1    0    0
 -1         1 2.97358E-14
 -1         2 2.97358E-14
 -1         3 2.97358E-14
 -1         4 2.97358E-14
 -1         5 2.97358E-14
 -1         6 2.97358E-14
 -1         7 2.97358E-14
 -1         8 2.97358E-14
 -1         9 2.97358E-14
 -1        10 2.97358E-14
 -1        11 2.97358E-14
 -1        12 2.97358E-14
 -1        13 2.97358E-14
 -1        14 2.97358E-14
 -1        15 2.97358E-14
 -1        16 2.97358E-14
 -1        17 2.97358E-14
 -1        18 2.97358E-14
 -1        19 2.97358E-14
 -1        20 2.97358E-14
 -3
    1PSTEP                       586         118           1          
  100CL  218 204202.9007          20                     0  118           1
 -4  DISP        4    1
 -5  D1          1    2    1    0
 -5  D2          1    2    2    0
 -5  D3          1    2    3    0
 -5  ALL         1    2    0    0    1ALL
 -1         1 0.00000E+00 0.00000E+00 0.00000E+00
 -1         2 0.00000E+00 0.00000E+00 0.00000E+00
 -1         3 0.00000E+00 0.00000E+00 2.00000E-03
 -1         4 0.00000E+00 0.00000E+00 2.00000E-03
 -1         5 0.00000E+00 0.00000E+00 0.00000E+00
 -1         6 0.00000E+00 0.00000E+00 0.00000E+00
 -1         7 0.00000E+00 0.00000E+00 2.00000E-03
 -1         8 0.00000E+00 0.00000E+00 2.00000E-03
 -1         9 0.00000E+00 0.00000E+00 0.00000E+00
 -1        10 0.00000E+00 0.00000E+00 1.00000E-03
 -1        11 0.00000E+00 0.00000E+00 2.00000E-03
 -1        12 0.00000E+00 0.00000E+00 1.00000E-03
 -1        13 0.00000E+00 0.00000E+00 0.00000E+00
 -1        14 0.00000E+00 0.00000E+00 0.00000E+00
 -1        15 0.00000E+00 0.00000E+00 2.00000E-03
 -1        16 0.00000E+00 0.00000E+00 2.00000E-03
 -1        17 0.00000E+00 0.00000E+00 0.00000E+00
 -1        18 0.00000E+00 0.00000E+00 1.00000E-03
 -1        19 0.00000E+00 0.00000E+00 2.00000E-03
 -1        20 0.00000E+00 0.00000E+00 1.00000E-03
 -3
    1PSTEP                       587         118           1          
  100CL  218 204202.9007          20                     0  118           1
 -4  STRESS      6    1
 -5  SXX         1    4    1    1
 -5  SYY         1    4    2    2
 -5  SZZ         1    4    3    3
 -5  SXY         1    4    1    2
 -5  SYZ         1    4    2    3
 -5  SZX         1    4    3    1
 -1         1 1.80369E+02 1.80369E+02 2.39237E+02 0.00000E+00 1.21433E-14 2.11657E-14
 -1         2 1.80369E+02 1.80369E+02 2.39237E+02 0.00000E+00-1.90986E-14-2.38038E-14
 -1         3 1.80369E+02 1.80369E+02 2.39237E+02 0.00000E+00-2.97039E-15-3.52779E-14
 -1         4 1.80369E+02 1.80369E+02 2.39237E+02 0.00000E+00-6.79545E-15 5.18450E-14
 -1         5 1.80369E+02 1.80369E+02 2.39237E+02 0.00000E+00 8.71743E-15-7.45366E-15
 -1         6 1.80369E+02 1.80369E+02 2.39237E+02 0.00000E+00-6.29486E-15 2.55145E-16
 -1         7 1.80369E+02 1.80369E+02 2.39237E+02 0.00000E+00 5.68768E-14 4.15942E-14
 -1         8 1.80369E+02 1.80369E+02 2.39237E+02 0.00000E+00-8.63898E-17-1.10825E-14
 -1         9 1.80386E+02 1.80386E+02 2.39259E+02 0.00000E+00-1.23272E-14-6.02219E-15
 -1        10 1.80386E+02 1.80386E+02 2.39259E+02 0.00000E+00 1.29633E-14 1.13397E-14
 -1        11 1.80386E+02 1.80386E+02 2.39259E+02 0.00000E+00 7.49405E-15 6.58648E-15
 -1        12 1.80386E+02 1.80386E+02 2.39259E+02 0.00000E+00 7.12547E-15 5.05648E-15
 -1        13 1.80386E+02 1.80386E+02 2.39259E+02 0.00000E+00-5.06589E-15-7.45852E-16
 -1        14 1.80386E+02 1.80386E+02 2.39259E+02 0.00000E+00 1.20730E-14 2.63186E-15
 -1        15 1.80386E+02 1.80386E+02 2.39259E+02 0.00000E+00-3.42495E-14 7.33723E-15
 -1        16 1.80386E+02 1.80386E+02 2.39259E+02 0.00000E+00 1.31031E-14 1.23036E-14
 -1        17 1.80386E+02 1.80386E+02 2.39259E+02 0.00000E+00-1.43265E-15 6.69667E-15
 -1        18 1.80386E+02 1.80386E+02 2.39259E+02 0.00000E+00 1.79404E-14-2.31111E-14
 -1        19 1.80386E+02 1.80386E+02 2.39259E+02 0.00000E+00 1.53970E-14-3.30001E-15
 -1        20 1.80386E+02 1.80386E+02 2.39259E+02 0.00000E+00 6.78334E-15 1.31563E-14
 -3
    1PSTEP                       588         118           1          
  100CL  218 204202.9007          20                     0  118           1
 -4  TOSTRAIN    6    1
 -5  EXX         1    4    1    1
 -5  EYY         1    4    2    2
 -5  EZZ         1    4    3    3
 -5  EXY         1    4    1    2
 -5  EYZ         1    4    2    3
 -5  EZX         1    4    3    1
 -1         1 0.00000E+00 0.00000E+00 1.99992E-03 0.00000E+00 4.12546E-19 7.19066E-19
 -1         2 0.00000E+00 0.00000E+00 1.99992E-03 0.00000E+00-6.48839E-19-8.08690E-19
 -1         3 0.00000E+00 0.00000E+00 1.99992E-03 0.00000E+00-1.00914E-19-1.19850E-18
 -1         4 0.00000E+00 0.00000E+00 1.99992E-03 0.00000E+00-2.30863E-19 1.76134E-18
 -1         5 0.00000E+00 0.00000E+00 1.99992E-03 0.00000E+00 2.96159E-19-2.53224E-19
 -1         6 0.00000E+00 0.00000E+00 1.99992E-03 0.00000E+00-2.13856E-19 8.66809E-21
 -1         7 0.00000E+00 0.00000E+00 1.99992E-03 0.00000E+00 1.93228E-18 1.41309E-18
 -1         8 0.00000E+00 0.00000E+00 1.99992E-03 0.00000E+00-2.93494E-21-3.76507E-19
 -1         9 0.00000E+00 0.00000E+00 2.00010E-03 0.00000E+00-4.18795E-19-2.04593E-19
 -1        10 0.00000E+00 0.00000E+00 2.00010E-03 0.00000E+00 4.40404E-19 3.85247E-19
 -1        11 0.00000E+00 0.00000E+00 2.00010E-03 0.00000E+00 2.54597E-19 2.23763E-19
 -1        12 0.00000E+00 0.00000E+00 2.00010E-03 0.00000E+00 2.42075E-19 1.71784E-19
 -1        13 0.00000E+00 0.00000E+00 2.00010E-03 0.00000E+00-1.72104E-19-2.53389E-20
 -1        14 0.00000E+00 0.00000E+00 2.00010E-03 0.00000E+00 4.10158E-19 8.94127E-20
 -1        15 0.00000E+00 0.00000E+00 2.00010E-03 0.00000E+00-1.16356E-18 2.49269E-19
 -1        16 0.00000E+00 0.00000E+00 2.00010E-03 0.00000E+00 4.45153E-19 4.17991E-19
 -1        17 0.00000E+00 0.00000E+00 2.00010E-03 0.00000E+00-4.86716E-20 2.27507E-19
 -1        18 0.00000E+00 0.00000E+00 2.00010E-03 0.00000E+00 6.09490E-19-7.85158E-19
 -1        19 0.00000E+00 0.00000E+00 2.00010E-03 0.00000E+00 5.23083E-19-1.12112E-19
 -1        20 0.00000E+00 0.00000E+00 2.00010E-03 0.00000E+00 2.30452E-19 4.46960E-19
 -3
    1PSTEP                       589         118           1          
  100CL  218 204202.9007          20                     0  118           1
 -4  FORC        4    1
 -5  F1          1    2    1    0
 -5  F2          1    2    2    0
 -5  F3          1    2    3    0
 -5  ALL         1    2    0    0    1ALL
 -1         1-1.50314E+01-1.50314E+01 1.99372E+01
 -1         2-1.50314E+01 1.50314E+01 1.99372E+01
 -1         3-1.50314E+01 1.50314E+01-1.99372E+01
 -1         4-1.50314E+01-1.50314E+01-1.99372E+01
 -1         5 1.50314E+01-1.50314E+01 1.99372E+01
 -1         6 1.50314E+01 1.50314E+01 1.99372E+01
 -1         7 1.50314E+01 1.50314E+01-1.99372E+01
 -1         8 1.50314E+01-1.50314E+01-1.99372E+01
 -1         9 6.01256E+01-1.04561E-14-7.97489E+01
 -1        10 6.01256E+01-6.01256E+01 1.11022E-14
 -1        11 6.01256E+01 2.01844E-15 7.97489E+01
 -1        12 6.01256E+01 6.01256E+01 1.23512E-14
 -1        13 7.07769E-16 6.01256E+01-7.97489E+01
 -1        14 1.05489E-14-6.01256E+01-7.97489E+01
 -1        15 1.88560E-15-6.01256E+01 7.97489E+01
 -1        16-2.65066E-15 6.01256E+01 7.97489E+01
 -1        17-6.01256E+01 1.39651E-15-7.97489E+01
 -1        18-6.01256E+01-6.01256E+01 3.55271E-15
 -1        19-6.01256E+01 3.71051E-15 7.97489E+01
 -1        20-6.01256E+01 6.01256E+01 6.21725E-15
 -3
    1PSTEP                       590         118           1          
  100CL  218 204202.9007          20                     0  118           1
 -4  ERROR       1    1
 -5  STR(%)      1    1    0    0
 -1         1 5.89416E-14
 -1         2 5.89416E-14
 -1         3 5.89416E-14
 -1         4 5.89416E-14
 -1         5 5.89416E-14
 -1         6 5.89416E-14
 -1         7 5.89416E-14
 -1         8 5.89416E-14
 -1         9 5.89416E-14
 -1        10 5.89416E-14
 -1        11 5.89416E-14
 -1        12 5.89416E-14
 -1        13 5.89416E-14
 -1        14 5.89416E-14
 -1        15 5.89416E-14
 -1        16 5.89416E-14
 -1        17 5.89416E-14
 -1        18 5.89416E-14
 -1        19 5.89416E-14
 -1        20 5.89416E-14
 -3
    1PSTEP                       591         119           1          
  100CL  219 207169.3747          20                     0  119           1
 -4  DISP        4    1
 -5  D1          1    2    1    0
 -5  D2          1    2    2    0
 -5  D3          1    2    3    0
 -5  ALL         1    2    0    0    1ALL
 -1         1 0.00000E+00 0.00000E+00 0.00000E+00
 -1         2 0.00000E+00 0.00000E+00 0.00000E+00
 -1         3 0.00000E+00 0.00000E+00 2.00000E-03
 -1         4 0.00000E+00 0.00000E+00 2.00000E-03
 -1         5 0.00000E+00 0.00000E+00 0.00000E+00
 -1         6 0.00000E+00 0.00000E+00 0.00000E+00
 -1         7 0.00000E+00 0.00000E+00 2.00000E-03
 -1         8 0.00000E+00 0.00000E+00 2.00000E-03
 -1         9 0.00000E+00 0.00000E+00 0.00000E+00
 -1        10 0.00000E+00 0.00000E+00 1.00000E-03
 -1        11 0.00000E+00 0.00000E+00 2.00000E-03
 -1        12 0.00000E+00 0.00000E+00 1.00000E-03
 -1        13 0.00000E+00 0.00000E+00 0.00000E+00
 -1        14 0.00000E+00 0.00000E+00 0.00000E+00
 -1        15 0.00000E+00 0.00000E+00 2.00000E-03
 -1        16 0.00000E+00 0.00000E+00 2.00000E-03
 -1        17 0.00000E+00 0.00000E+00 0.00000E+00
 -1        18 0.00000E+00 0.00000E+00 1.00000E-03
 -1        19 0.00000E+00 0.00000E+00 2.00000E-03
 -1        20 0.00000E+00 0.00000E+00 1.00000E-03
 -3
    1PSTEP                       592         119           1          
  100CL  219 207169.3747          20                     0  119           1
 -4  STRESS      6    1
 -5  SXX         1    4    1    1
 -5  SYY         1    4    2    2
 -5  SZZ         1    4    3    3
 -5  SXY         1    4    1    2
 -5  SYZ         1    4    2    3
 -5  SZX         1    4    3    1
 -1         1 1.80601E+02 1.80601E+02 2.38775E+02 0.00000E+00 1.20002E-14 2.09163E-14
 -1         2 1.80601E+02 1.80601E+02 2.38775E+02 0.00000E+00-1.88735E-14-2.35233E-14
 -1         3 1.80601E+02 1.80601E+02 2.38775E+02 0.00000E+00-2.93539E-15-3.48622E-14
 -1         4 1.80601E+02 1.80601E+02 2.38775E+02 0.00000E+00-6.71538E-15 5.12341E-14
 -1         5 1.80601E+02 1.80601E+02 2.38775E+02 0.00000E+00 8.61471E-15-7.36583E-15
 -1         6 1.80601E+02 1.80601E+02 2.38775E+02 0.00000E+00-6.22069E-15 2.52139E-16
 -1         7 1.80601E+02 1.80601E+02 2.38775E+02 0.00000E+00 5.62066E-14 4.11041E-14
 -1         8 1.80601E+02 1.80601E+02 2.38775E+02 0.00000E+00-8.53719E-17-1.09519E-14
 -1         9 1.80617E+02 1.80617E+02 2.38796E+02 0.00000E+00-1.21820E-14-5.95124E-15
 -1        10 1.80617E+02 1.80617E+02 2.38796E+02 0.00000E+00 1.28106E-14 1.12061E-14
 -1        11 1.80617E+02 1.80617E+02 2.38796E+02 0.00000E+00 7.40575E-15 6.50887E-15
 -1        12 1.80617E+02 1.80617E+02 2.38796E+02 0.00000E+00 7.04151E-15 4.99690E-15
 -1        13 1.80617E+02 1.80617E+02 2.38796E+02 0.00000E+00-5.00620E-15-7.37064E-16
 -1        14 1.80617E+02 1.80617E+02 2.38796E+02 0.00000E+00 1.19308E-14 2.60085E-15
 -1        15 1.80617E+02 1.80617E+02 2.38796E+02 0.00000E+00-3.38460E-14 7.25078E-15
 -1        16 1.80617E+02 1.80617E+02 2.38796E+02 0.00000E+00 1.29487E-14 1.21586E-14
 -1        17 1.80617E+02 1.80617E+02 2.38796E+02 0.00000E+00-1.41577E-15 6.61776E-15
 -1        18 1.80617E+02 1.80617E+02 2.38796E+02 0.00000E+00 1.77290E-14-2.28388E-14
 -1        19 1.80617E+02 1.80617E+02 2.38796E+02 0.00000E+00 1.52155E-14-3.26112E-15
 -1        20 1.80617E+02 1.80617E+02 2.38796E+02 0.00000E+00 6.70342E-15 1.30012E-14
 -3
    1PSTEP                       593         119           1          
  100CL  219 207169.3747          20                     0  119           1
 -4  TOSTRAIN    6    1
 -5  EXX         1    4    1    1
 -5  EYY         1    4    2    2
 -5  EZZ         1    4    3    3
 -5  EXY         1    4    1    2
 -5  EYZ         1    4    2    3
 -5  EZX         1    4    3    1
 -1         1 0.00000E+00 0.00000E+00 1.99992E-03 0.00000E+00 4.12546E-19 7.19066E-19
 -1         2 0.00000E+00 0.00000E+00 1.99992E-03 0.00000E+00-6.48839E-19-8.08690E-19
 -1         3 0.00000E+00 0.00000E+00 1.99992E-03 0.00000E+00-1.00914E-19-1.19850E-18
 -1         4 0.00000E+00 0.00000E+00 1.99992E-03 0.00000E+00-2.30863E-19 1.76134E-18
 -1         5 0.00000E+00 0.00000E+00 1.99992E-03 0.00000E+00 2.96159E-19-2.53224E-19
 -1         6 0.00000E+00 0.00000E+00 1.99992E-03 0.00000E+00-2.13856E-19 8.66809E-21
 -1         7 0.00000E+00 0.00000E+00 1.99992E-03 0.00000E+00 1.93228E-18 1.41309E-18
 -1         8 0.00000E+00 0.00000E+00 1.99992E-03 0.00000E+00-2.93494E-21-3.76507E-19
 -1         9 0.00000E+00 0.00000E+00 2.00010E-03 0.00000E+00-4.18795E-19-2.04593E-19
 -1        10 0.00000E+00 0.00000E+00 2.00010E-03 0.00000E+00 4.40404E-19 3.85247E-19
 -1        11 0.00000E+00 0.00000E+00 2.00010E-03 0.00000E+00 2.54597E-19 2.23763E-19
 -1        12 0.00000E+00 0.00000E+00 2.00010E-03 0.00000E+00 2.42075E-19 1.71784E-19
 -1        13 0.00000E+00 0.00000E+00 2.00010E-03 0.00000E+00-1.72104E-19-2.53389E-20
 -1        14 0.00000E+00 0.00000E+00 2.00010E-03 0.00000E+00 4.10158E-19 8.94127E-20
 -1        15 0.00000E+00 0.00000E+00 2.00010E-03 0.00000E+00-1.16356E-18 2.49269E-19
 -1        16 0.00000E+00 0.00000E+00 2.00010E-03 0.00000E+00 4.45153E-19 4.17991E-19
 -1        17 0.00000E+00 0.00000E+00 2.00010E-03 0.00000E+00-4.86716E-20 2.27507E-19
 -1        18 0.00000E+00 0.00000E+00 2.00010E-03 0.00000E+00 6.09490E-19-7.85158E-19
 -1        19 0.00000E+00 0.00000E+00 2.00010E-03 0.00000E+00 5.23083E-19-1.12112E-19
 -1        20 0.00000E+00 0.00000E+00 2.00010E-03 0.00000E+00 2.30452E-19 4.46960E-19
 -3
    1PSTEP                       594         119           1          
  100CL  219 207169.3747          20                     0  119           1
 -4  FORC        4    1
 -5  F1          1    2    1    0
 -5  F2          1    2    2    0
 -5  F3          1    2    3    0
 -5  ALL         1    2    0    0    1ALL
 -1         1-1.50507E+01-1.50507E+01 1.98987E+01
 -1         2-1.50507E+01 1.50507E+01 1.98987E+01
 -1         3-1.50507E+01 1.50507E+01-1.98987E+01
 -1         4-1.50507E+01-1.50507E+01-1.98987E+01
 -1         5 1.50507E+01-1.50507E+01 1.98987E+01
 -1         6 1.50507E+01 1.50507E+01 1.98987E+01
 -1         7 1.50507E+01 1.50507E+01-1.98987E+01
 -1         8 1.50507E+01-1.50507E+01-1.98987E+01
 -1         9 6.02026E+01-8.87384E-15-7.95947E+01
 -1        10 6.02026E+01-6.02026E+01 3.10862E-15
 -1        11 6.02026E+01 5.57092E-15 7.95947E+01
 -1        12 6.02026E+01 6.02026E+01 1.80411E-14
 -1        13-5.31503E-15 6.02026E+01-7.95947E+01
 -1        14 1.41029E-14-6.02026E+01-7.95947E+01
 -1        15-1.66840E-15-6.02026E+01 7.95947E+01
 -1        16-1.31855E-15 6.02026E+01 7.95947E+01
 -1        17-6.02026E+01 3.39677E-15-7.95947E+01
 -1        18-6.02026E+01-6.02026E+01-1.77636E-15
 -1        19-6.02026E+01 5.48501E-15 7.95947E+01
 -1        20-6.02026E+01 6.02026E+01 1.55431E-15
 -3
    1PSTEP                       595         119           1          
  100CL  219 207169.3747          20                     0  119           1
 -4  ERROR       1    1
 -5  STR(%)      1    1    0    0
 -1         1 1.09588E-14
 -1         2 1.09588E-14
 -1         3 1.09588E-14
 -1         4 1.09588E-14
 -1         5 1.09588E-14
 -1         6 1.09588E-14
 -1         7 1.09588E-14
 -1         8 1.09588E-14
 -1         9 1.09588E-14
 -1        10 1.09588E-14
 -1        11 1.09588E-14
 -1        12 1.09588E-14
 -1        13 1.09588E-14
 -1        14 1.09588E-14
 -1        15 1.09588E-14
 -1        16 1.09588E-14
 -1        17 1.09588E-14
 -1        18 1.09588E-14
 -1        19 1.09588E-14
 -1        20 1.09588E-14
 -3
    1PSTEP                       596         120           1          
  100CL  220 209238.1673          20                     0  120           1
 -4  DISP        4    1
 -5  D1          1    2    1    0
 -5  D2          1    2    2    0
 -5  D3          1    2    3    0
 -5  ALL         1    2    0    0    1ALL
 -1         1 0.00000E+00 0.00000E+00 0.00000E+00
 -1         2 0.00000E+00 0.00000E+00 0.00000E+00
 -1         3 0.00000E+00 0.00000E+00 2.00000E-03
 -1         4 0.00000E+00 0.00000E+00 2.00000E-03
 -1         5 0.00000E+00 0.00000E+00 0.00000E+00
 -1         6 0.00000E+00 0.00000E+00 0.00000E+00
 -1         7 0.00000E+00 0.00000E+00 2.00000E-03
 -1         8 0.00000E+00 0.00000E+00 2.00000E-03
 -1         9 0.00000E+00 0.00000E+00 0.00000E+00
 -1        10 0.00000E+00 0.00000E+00 1.00000E-03
 -1        11 0.00000E+00 0.00000E+00 2.00000E-03
 -1        12 0.00000E+00 0.00000E+00 1.00000E-03
 -1        13 0.00000E+00 0.00000E+00 0.00000E+00
 -1        14 0.00000E+00 0.00000E+00 0.00000E+00
 -1        15 0.00000E+00 0.00000E+00 2.00000E-03
 -1        16 0.00000E+00 0.00000E+00 2.00000E-03
 -1        17 0.00000E+00 0.00000E+00 0.00000E+00
 -1        18 0.00000E+00 0.00000E+00 1.00000E-03
 -1        19 0.00000E+00 0.00000E+00 2.00000E-03
 -1        20 0.00000E+00 0.00000E+00 1.00000E-03
 -3
    1PSTEP                       597         120           1          
  100CL  220 209238.1673          20                     0  120           1
 -4  STRESS      6    1
 -5  SXX         1    4    1    1
 -5  SYY         1    4    2    2
 -5  SZZ         1    4    3    3
 -5  SXY         1    4    1    2
 -5  SYZ         1    4    2    3
 -5  SZX         1    4    3    1
 -1         1 1.80761E+02 1.80761E+02 2.38455E+02 0.00000E+00 1.19012E-14 2.07438E-14
 -1         2 1.80761E+02 1.80761E+02 2.38455E+02 0.00000E+00-1.87179E-14-2.33293E-14
 -1         3 1.80761E+02 1.80761E+02 2.38455E+02 0.00000E+00-2.91119E-15-3.45747E-14
 -1         4 1.80761E+02 1.80761E+02 2.38455E+02 0.00000E+00-6.66000E-15 5.08116E-14
 -1         5 1.80761E+02 1.80761E+02 2.38455E+02 0.00000E+00 8.54367E-15-7.30509E-15
 -1         6 1.80761E+02 1.80761E+02 2.38455E+02 0.00000E+00-6.16939E-15 2.50060E-16
 -1         7 1.80761E+02 1.80761E+02 2.38455E+02 0.00000E+00 5.57431E-14 4.07651E-14
 -1         8 1.80761E+02 1.80761E+02 2.38455E+02 0.00000E+00-8.46679E-17-1.08616E-14
 -1         9 1.80777E+02 1.80777E+02 2.38476E+02 0.00000E+00-1.20815E-14-5.90216E-15
 -1        10 1.80777E+02 1.80777E+02 2.38476E+02 0.00000E+00 1.27049E-14 1.11137E-14
 -1        11 1.80777E+02 1.80777E+02 2.38476E+02 0.00000E+00 7.34468E-15 6.45519E-15
 -1        12 1.80777E+02 1.80777E+02 2.38476E+02 0.00000E+00 6.98344E-15 4.95569E-15
 -1        13 1.80777E+02 1.80777E+02 2.38476E+02 0.00000E+00-4.96491E-15-7.30985E-16
 -1        14 1.80777E+02 1.80777E+02 2.38476E+02 0.00000E+00 1.18324E-14 2.57940E-15
 -1        15 1.80777E+02 1.80777E+02 2.38476E+02 0.00000E+00-3.35669E-14 7.19098E-15
 -1        16 1.80777E+02 1.80777E+02 2.38476E+02 0.00000E+00 1.28419E-14 1.20583E-14
 -1        17 1.80777E+02 1.80777E+02 2.38476E+02 0.00000E+00-1.40409E-15 6.56319E-15
 -1        18 1.80777E+02 1.80777E+02 2.38476E+02 0.00000E+00 1.75828E-14-2.26505E-14
 -1        19 1.80777E+02 1.80777E+02 2.38476E+02 0.00000E+00 1.50901E-14-3.23423E-15
 -1        20 1.80777E+02 1.80777E+02 2.38476E+02 0.00000E+00 6.64814E-15 1.28940E-14
 -3
    1PSTEP                       598         120           1          
  100CL  220 209238.1673          20                     0  120           1
 -4  TOSTRAIN    6    1
 -5  EXX         1    4    1    1
 -5  EYY         1    4    2    2
 -5  EZZ         1    4    3    3
 -5  EXY         1    4    1    2
 -5  EYZ         1    4    2    3
 -5  EZX         1    4    3    1
 -1         1 0.00000E+00 0.00000E+00 1.99992E-03 0.00000E+00 4.12546E-19 7.19066E-19
 -1         2 0.00000E+00 0.00000E+00 1.99992E-03 0.00000E+00-6.48839E-19-8.08690E-19
 -1         3 0.00000E+00 0.00000E+00 1.99992E-03 0.00000E+00-1.00914E-19-1.19850E-18
 -1         4 0.00000E+00 0.00000E+00 1.99992E-03 0.00000E+00-2.30863E-19 1.76134E-18
 -1         5 0.00000E+00 0.00000E+00 1.99992E-03 0.00000E+00 2.96159E-19-2.53224E-19
 -1         6 0.00000E+00 0.00000E+00 1.99992E-03 0.00000E+00-2.13856E-19 8.66809E-21
 -1         7 0.00000E+00 0.00000E+00 1.99992E-03 0.00000E+00 1.93228E-18 1.41309E-18
 -1         8 0.00000E+00 0.00000E+00 1.99992E-03 0.00000E+00-2.93494E-21-3.76507E-19
 -1         9 0.00000E+00 0.00000E+00 2.00010E-03 0.00000E+00-4.18795E-19-2.04593E-19
 -1        10 0.00000E+00 0.00000E+00 2.00010E-03 0.00000E+00 4.40404E-19 3.85247E-19
 -1        11 0.00000E+00 0.00000E+00 2.00010E-03 0.00000E+00 2.54597E-19 2.23763E-19
 -1        12 0.00000E+00 0.00000E+00 2.00010E-03 0.00000E+00 2.42075E-19 1.71784E-19
 -1        13 0.00000E+00 0.00000E+00 2.00010E-03 0.00000E+00-1.72104E-19-2.53389E-20
 -1        14 0.00000E+00 0.00000E+00 2.00010E-03 0.00000E+00 4.10158E-19 8.94127E-20
 -1        15 0.00000E+00 0.00000E+00 2.00010E-03 0.00000E+00-1.16356E-18 2.49269E-19
 -1        16 0.00000E+00 0.00000E+00 2.00010E-03 0.00000E+00 4.45153E-19 4.17991E-19
 -1        17 0.00000E+00 0.00000E+00 2.00010E-03 0.00000E+00-4.86716E-20 2.27507E-19
 -1        18 0.00000E+00 0.00000E+00 2.00010E-03 0.00000E+00 6.09490E-19-7.85158E-19
 -1        19 0.00000E+00 0.00000E+00 2.00010E-03 0.00000E+00 5.23083E-19-1.12112E-19
 -1        20 0.00000E+00 0.00000E+00 2.00010E-03 0.00000E+00 2.30452E-19 4.46960E-19
 -3
    1PSTEP                       599         120           1          
  100CL  220 209238.1673          20                     0  120           1
 -4  FORC        4    1
 -5  F1          1    2    1    0
 -5  F2          1    2    2    0
 -5  F3          1    2    3    0
 -5  ALL         1    2    0    0    1ALL
 -1         1-1.50640E+01-1.50640E+01 1.98720E+01
 -1         2-1.50640E+01 1.50640E+01 1.98720E+01
 -1         3-1.50640E+01 1.50640E+01-1.98720E+01
 -1         4-1.50640E+01-1.50640E+01-1.98720E+01
 -1         5 1.50640E+01-1.50640E+01 1.98720E+01
 -1         6 1.50640E+01 1.50640E+01 1.98720E+01
 -1         7 1.50640E+01 1.50640E+01-1.98720E+01
 -1         8 1.50640E+01-1.50640E+01-1.98720E+01
 -1         9 6.02559E+01-2.65642E-15-7.94881E+01
 -1        10 6.02559E+01-6.02559E+01 5.10703E-15
 -1        11 6.02559E+01 7.12507E-15 7.94881E+01
 -1        12 6.02559E+01 6.02559E+01 2.04559E-14
 -1        13-2.15078E-15 6.02559E+01-7.94881E+01
 -1        14 1.45479E-14-6.02559E+01-7.94881E+01
 -1        15 5.43614E-15-6.02559E+01 7.94881E+01
 -1        16-4.20525E-15 6.02559E+01 7.94881E+01
 -1        17-6.02559E+01 5.17442E-15-7.94881E+01
 -1        18-6.02559E+01-6.02559E+01 0.00000E+00
 -1        19-6.02559E+01 1.93101E-15 7.94881E+01
 -1        20-6.02559E+01 6.02559E+01 9.99201E-15
 -3
    1PSTEP                       600         120           1          
  100CL  220 209238.1673          20                     0  120           1
 -4  ERROR       1    1
 -5  STR(%)      1    1    0    0
 -1         1 3.17012E-14
 -1         2 3.17012E-14
 -1         3 3.17012E-14
 -1         4 3.17012E-14
 -1         5 3.17012E-14
 -1         6 3.17012E-14
 -1         7 3.17012E-14
 -1         8 3.17012E-14
 -1         9 3.17012E-14
 -1        10 3.17012E-14
 -1        11 3.17012E-14
 -1        12 3.17012E-14
 -1        13 3.17012E-14
 -1        14 3.17012E-14
 -1        15 3.17012E-14
 -1        16 3.17012E-14
 -1        17 3.17012E-14
 -1        18 3.17012E-14
 -1        19 3.17012E-14
 -1        20 3.17012E-14
 -3
    1PSTEP                       601         121           1          
  100CL  221 211306.9598          20                     0  121           1
 -4  DISP        4    1
 -5  D1          1    2    1    0
 -5  D2          1    2    2    0
 -5  D3          1    2    3    0
 -5  ALL         1    2    0    0    1ALL
 -1         1 0.00000E+00 0.00000E+00 0.00000E+00
 -1         2 0.00000E+00 0.00000E+00 0.00000E+00
 -1         3 0.00000E+00 0.00000E+00 2.00000E-03
 -1         4 0.00000E+00 0.00000E+00 2.00000E-03
 -1         5 0.00000E+00 0.00000E+00 0.00000E+00
 -1         6 0.00000E+00 0.00000E+00 0.00000E+00
 -1         7 0.00000E+00 0.00000E+00 2.00000E-03
 -1         8 0.00000E+00 0.00000E+00 2.00000E-03
 -1         9 0.00000E+00 0.00000E+00 0.00000E+00
 -1        10 0.00000E+00 0.00000E+00 1.00000E-03
 -1        11 0.00000E+00 0.00000E+00 2.00000E-03
 -1        12 0.00000E+00 0.00000E+00 1.00000E-03
 -1        13 0.00000E+00 0.00000E+00 0.00000E+00
 -1        14 0.00000E+00 0.00000E+00 0.00000E+00
 -1        15 0.00000E+00 0.00000E+00 2.00000E-03
 -1        16 0.00000E+00 0.00000E+00 2.00000E-03
 -1        17 0.00000E+00 0.00000E+00 0.00000E+00
 -1        18 0.00000E+00 0.00000E+00 1.00000E-03
 -1        19 0.00000E+00 0.00000E+00 2.00000E-03
 -1        20 0.00000E+00 0.00000E+00 1.00000E-03
 -3
    1PSTEP                       602         121           1          
  100CL  221 211306.9598          20                     0  121           1
 -4  STRESS      6    1
 -5  SXX         1    4    1    1
 -5  SYY         1    4    2    2
 -5  SZZ         1    4    3    3
 -5  SXY         1    4    1    2
 -5  SYZ         1    4    2    3
 -5  SZX         1    4    3    1
 -1         1 1.80919E+02 1.80919E+02 2.38138E+02 0.00000E+00 1.18031E-14 2.05727E-14
 -1         2 1.80919E+02 1.80919E+02 2.38138E+02 0.00000E+00-1.85635E-14-2.31369E-14
 -1         3 1.80919E+02 1.80919E+02 2.38138E+02 0.00000E+00-2.88718E-15-3.42896E-14
 -1         4 1.80919E+02 1.80919E+02 2.38138E+02 0.00000E+00-6.60507E-15 5.03925E-14
 -1         5 1.80919E+02 1.80919E+02 2.38138E+02 0.00000E+00 8.47321E-15-7.24484E-15
 -1         6 1.80919E+02 1.80919E+02 2.38138E+02 0.00000E+00-6.11851E-15 2.47998E-16
 -1         7 1.80919E+02 1.80919E+02 2.38138E+02 0.00000E+00 5.52834E-14 4.04289E-14
 -1         8 1.80919E+02 1.80919E+02 2.38138E+02 0.00000E+00-8.39696E-17-1.07720E-14
 -1         9 1.80935E+02 1.80935E+02 2.38159E+02 0.00000E+00-1.19819E-14-5.85348E-15
 -1        10 1.80935E+02 1.80935E+02 2.38159E+02 0.00000E+00 1.26001E-14 1.10221E-14
 -1        11 1.80935E+02 1.80935E+02 2.38159E+02 0.00000E+00 7.28411E-15 6.40196E-15
 -1        12 1.80935E+02 1.80935E+02 2.38159E+02 0.00000E+00 6.92585E-15 4.91482E-15
 -1        13 1.80935E+02 1.80935E+02 2.38159E+02 0.00000E+00-4.92397E-15-7.24957E-16
 -1        14 1.80935E+02 1.80935E+02 2.38159E+02 0.00000E+00 1.17348E-14 2.55813E-15
 -1        15 1.80935E+02 1.80935E+02 2.38159E+02 0.00000E+00-3.32900E-14 7.13168E-15
 -1        16 1.80935E+02 1.80935E+02 2.38159E+02 0.00000E+00 1.27360E-14 1.19589E-14
 -1        17 1.80935E+02 1.80935E+02 2.38159E+02 0.00000E+00-1.39251E-15 6.50906E-15
 -1        18 1.80935E+02 1.80935E+02 2.38159E+02 0.00000E+00 1.74378E-14-2.24637E-14
 -1        19 1.80935E+02 1.80935E+02 2.38159E+02 0.00000E+00 1.49656E-14-3.20756E-15
 -1        20 1.80935E+02 1.80935E+02 2.38159E+02 0.00000E+00 6.59331E-15 1.27877E-14
 -3
    1PSTEP                       603         121           1          
  100CL  221 211306.9598          20                     0  121           1
 -4  TOSTRAIN    6    1
 -5  EXX         1    4    1    1
 -5  EYY         1    4    2    2
 -5  EZZ         1    4    3    3
 -5  EXY         1    4    1    2
 -5  EYZ         1    4    2    3
 -5  EZX         1    4    3    1
 -1         1 0.00000E+00 0.00000E+00 1.99992E-03 0.00000E+00 4.12546E-19 7.19066E-19
 -1         2 0.00000E+00 0.00000E+00 1.99992E-03 0.00000E+00-6.48839E-19-8.08690E-19
 -1         3 0.00000E+00 0.00000E+00 1.99992E-03 0.00000E+00-1.00914E-19-1.19850E-18
 -1         4 0.00000E+00 0.00000E+00 1.99992E-03 0.00000E+00-2.30863E-19 1.76134E-18
 -1         5 0.00000E+00 0.00000E+00 1.99992E-03 0.00000E+00 2.96159E-19-2.53224E-19
 -1         6 0.00000E+00 0.00000E+00 1.99992E-03 0.00000E+00-2.13856E-19 8.66809E-21
 -1         7 0.00000E+00 0.00000E+00 1.99992E-03 0.00000E+00 1.93228E-18 1.41309E-18
 -1         8 0.00000E+00 0.00000E+00 1.99992E-03 0.00000E+00-2.93494E-21-3.76507E-19
 -1         9 0.00000E+00 0.00000E+00 2.00010E-03 0.00000E+00-4.18795E-19-2.04593E-19
 -1        10 0.00000E+00 0.00000E+00 2.00010E-03 0.00000E+00 4.40404E-19 3.85247E-19
 -1        11 0.00000E+00 0.00000E+00 2.00010E-03 0.00000E+00 2.54597E-19 2.23763E-19
 -1        12 0.00000E+00 0.00000E+00 2.00010E-03 0.00000E+00 2.42075E-19 1.71784E-19
 -1        13 0.00000E+00 0.00000E+00 2.00010E-03 0.00000E+00-1.72104E-19-2.53389E-20
 -1        14 0.00000E+00 0.00000E+00 2.00010E-03 0.00000E+00 4.10158E-19 8.94127E-20
 -1        15 0.00000E+00 0.00000E+00 2.00010E-03 0.00000E+00-1.16356E-18 2.49269E-19
 -1        16 0.00000E+00 0.00000E+00 2.00010E-03 0.00000E+00 4.45153E-19 4.17991E-19
 -1        17 0.00000E+00 0.00000E+00 2.00010E-03 0.00000E+00-4.86716E-20 2.27507E-19
 -1        18 0.00000E+00 0.00000E+00 2.00010E-03 0.00000E+00 6.09490E-19-7.85158E-19
 -1        19 0.00000E+00 0.00000E+00 2.00010E-03 0.00000E+00 5.23083E-19-1.12112E-19
 -1        20 0.00000E+00 0.00000E+00 2.00010E-03 0.00000E+00 2.30452E-19 4.46960E-19
 -3
    1PSTEP                       604         121           1          
  100CL  221 211306.9598          20                     0  121           1
 -4  FORC        4    1
 -5  F1          1    2    1    0
 -5  F2          1    2    2    0
 -5  F3          1    2    3    0
 -5  ALL         1    2    0    0    1ALL
 -1         1-1.50772E+01-1.50772E+01 1.98456E+01
 -1         2-1.50772E+01 1.50772E+01 1.98456E+01
 -1         3-1.50772E+01 1.50772E+01-1.98456E+01
 -1         4-1.50772E+01-1.50772E+01-1.98456E+01
 -1         5 1.50772E+01-1.50772E+01 1.98456E+01
 -1         6 1.50772E+01 1.50772E+01 1.98456E+01
 -1         7 1.50772E+01 1.50772E+01-1.98456E+01
 -1         8 1.50772E+01-1.50772E+01-1.98456E+01
 -1         9 6.03088E+01-7.79104E-15-7.93824E+01
 -1        10 6.03088E+01-6.03088E+01 1.28786E-14
 -1        11 6.03088E+01 7.56900E-15 7.93824E+01
 -1        12 6.03088E+01 6.03088E+01 1.60982E-14
 -1        13-1.64170E-14 6.03088E+01-7.93824E+01
 -1        14 8.77560E-15-6.03088E+01-7.93824E+01
 -1        15 1.07643E-14-6.03088E+01 7.93824E+01
 -1        16 6.00869E-15 6.03088E+01 7.93824E+01
 -1        17-6.03088E+01-1.53380E-16-7.93824E+01
 -1        18-6.03088E+01-6.03088E+01-1.77636E-15
 -1        19-6.03088E+01 3.70609E-15 7.93824E+01
 -1        20-6.03088E+01 6.03088E+01 4.44089E-16
 -3
    1PSTEP                       605         121           1          
  100CL  221 211306.9598          20                     0  121           1
 -4  ERROR       1    1
 -5  STR(%)      1    1    0    0
 -1         1 5.92137E-14
 -1         2 5.92137E-14
 -1         3 5.92137E-14
 -1         4 5.92137E-14
 -1         5 5.92137E-14
 -1         6 5.92137E-14
 -1         7 5.92137E-14
 -1         8 5.92137E-14
 -1         9 5.92137E-14
 -1        10 5.92137E-14
 -1        11 5.92137E-14
 -1        12 5.92137E-14
 -1        13 5.92137E-14
 -1        14 5.92137E-14
 -1        15 5.92137E-14
 -1        16 5.92137E-14
 -1        17 5.92137E-14
 -1        18 5.92137E-14
 -1        19 5.92137E-14
 -1        20 5.92137E-14
 -3
    1PSTEP                       606         122           1          
  100CL  222 214410.1486          20                     0  122           1
 -4  DISP        4    1
 -5  D1          1    2    1    0
 -5  D2          1    2    2    0
 -5  D3          1    2    3    0
 -5  ALL         1    2    0    0    1ALL
 -1         1 0.00000E+00 0.00000E+00 0.00000E+00
 -1         2 0.00000E+00 0.00000E+00 0.00000E+00
 -1         3 0.00000E+00 0.00000E+00 2.00000E-03
 -1         4 0.00000E+00 0.00000E+00 2.00000E-03
 -1         5 0.00000E+00 0.00000E+00 0.00000E+00
 -1         6 0.00000E+00 0.00000E+00 0.00000E+00
 -1         7 0.00000E+00 0.00000E+00 2.00000E-03
 -1         8 0.00000E+00 0.00000E+00 2.00000E-03
 -1         9 0.00000E+00 0.00000E+00 0.00000E+00
 -1        10 0.00000E+00 0.00000E+00 1.00000E-03
 -1        11 0.00000E+00 0.00000E+00 2.00000E-03
 -1        12 0.00000E+00 0.00000E+00 1.00000E-03
 -1        13 0.00000E+00 0.00000E+00 0.00000E+00
 -1        14 0.00000E+00 0.00000E+00 0.00000E+00
 -1        15 0.00000E+00 0.00000E+00 2.00000E-03
 -1        16 0.00000E+00 0.00000E+00 2.00000E-03
 -1        17 0.00000E+00 0.00000E+00 0.00000E+00
 -1        18 0.00000E+00 0.00000E+00 1.00000E-03
 -1        19 0.00000E+00 0.00000E+00 2.00000E-03
 -1        20 0.00000E+00 0.00000E+00 1.00000E-03
 -3
    1PSTEP                       607         122           1          
  100CL  222 214410.1486          20                     0  122           1
 -4  STRESS      6    1
 -5  SXX         1    4    1    1
 -5  SYY         1    4    2    2
 -5  SZZ         1    4    3    3
 -5  SXY         1    4    1    2
 -5  SYZ         1    4    2    3
 -5  SZX         1    4    3    1
 -1         1 1.81154E+02 1.81154E+02 2.37668E+02 0.00000E+00 1.16577E-14 2.03193E-14
 -1         2 1.81154E+02 1.81154E+02 2.37668E+02 0.00000E+00-1.83348E-14-2.28519E-14
 -1         3 1.81154E+02 1.81154E+02 2.37668E+02 0.00000E+00-2.85161E-15-3.38672E-14
 -1         4 1.81154E+02 1.81154E+02 2.37668E+02 0.00000E+00-6.52370E-15 4.97717E-14
 -1         5 1.81154E+02 1.81154E+02 2.37668E+02 0.00000E+00 8.36883E-15-7.15559E-15
 -1         6 1.81154E+02 1.81154E+02 2.37668E+02 0.00000E+00-6.04313E-15 2.44942E-16
 -1         7 1.81154E+02 1.81154E+02 2.37668E+02 0.00000E+00 5.46023E-14 3.99309E-14
 -1         8 1.81154E+02 1.81154E+02 2.37668E+02 0.00000E+00-8.29352E-17-1.06393E-14
 -1         9 1.81170E+02 1.81170E+02 2.37689E+02 0.00000E+00-1.18343E-14-5.78137E-15
 -1        10 1.81170E+02 1.81170E+02 2.37689E+02 0.00000E+00 1.24449E-14 1.08863E-14
 -1        11 1.81170E+02 1.81170E+02 2.37689E+02 0.00000E+00 7.19437E-15 6.32309E-15
 -1        12 1.81170E+02 1.81170E+02 2.37689E+02 0.00000E+00 6.84053E-15 4.85427E-15
 -1        13 1.81170E+02 1.81170E+02 2.37689E+02 0.00000E+00-4.86331E-15-7.16026E-16
 -1        14 1.81170E+02 1.81170E+02 2.37689E+02 0.00000E+00 1.15902E-14 2.52662E-15
 -1        15 1.81170E+02 1.81170E+02 2.37689E+02 0.00000E+00-3.28799E-14 7.04382E-15
 -1        16 1.81170E+02 1.81170E+02 2.37689E+02 0.00000E+00 1.25791E-14 1.18116E-14
 -1        17 1.81170E+02 1.81170E+02 2.37689E+02 0.00000E+00-1.37536E-15 6.42888E-15
 -1        18 1.81170E+02 1.81170E+02 2.37689E+02 0.00000E+00 1.72229E-14-2.21869E-14
 -1        19 1.81170E+02 1.81170E+02 2.37689E+02 0.00000E+00 1.47812E-14-3.16804E-15
 -1        20 1.81170E+02 1.81170E+02 2.37689E+02 0.00000E+00 6.51208E-15 1.26302E-14
 -3
    1PSTEP                       608         122           1          
  100CL  222 214410.1486          20                     0  122           1
 -4  TOSTRAIN    6    1
 -5  EXX         1    4    1    1
 -5  EYY         1    4    2    2
 -5  EZZ         1    4    3    3
 -5  EXY         1    4    1    2
 -5  EYZ         1    4    2    3
 -5  EZX         1    4    3    1
 -1         1 0.00000E+00 0.00000E+00 1.99992E-03 0.00000E+00 4.12546E-19 7.19066E-19
 -1         2 0.00000E+00 0.00000E+00 1.99992E-03 0.00000E+00-6.48839E-19-8.08690E-19
 -1         3 0.00000E+00 0.00000E+00 1.99992E-03 0.00000E+00-1.00914E-19-1.19850E-18
 -1         4 0.00000E+00 0.00000E+00 1.99992E-03 0.00000E+00-2.30863E-19 1.76134E-18
 -1         5 0.00000E+00 0.00000E+00 1.99992E-03 0.00000E+00 2.96159E-19-2.53224E-19
 -1         6 0.00000E+00 0.00000E+00 1.99992E-03 0.00000E+00-2.13856E-19 8.66809E-21
 -1         7 0.00000E+00 0.00000E+00 1.99992E-03 0.00000E+00 1.93228E-18 1.41309E-18
 -1         8 0.00000E+00 0.00000E+00 1.99992E-03 0.00000E+00-2.93494E-21-3.76507E-19
 -1         9 0.00000E+00 0.00000E+00 2.00010E-03 0.00000E+00-4.18795E-19-2.04593E-19
 -1        10 0.00000E+00 0.00000E+00 2.00010E-03 0.00000E+00 4.40404E-19 3.85247E-19
 -1        11 0.00000E+00 0.00000E+00 2.00010E-03 0.00000E+00 2.54597E-19 2.23763E-19
 -1        12 0.00000E+00 0.00000E+00 2.00010E-03 0.00000E+00 2.42075E-19 1.71784E-19
 -1        13 0.00000E+00 0.00000E+00 2.00010E-03 0.00000E+00-1.72104E-19-2.53389E-20
 -1        14 0.00000E+00 0.00000E+00 2.00010E-03 0.00000E+00 4.10158E-19 8.94127E-20
 -1        15 0.00000E+00 0.00000E+00 2.00010E-03 0.00000E+00-1.16356E-18 2.49269E-19
 -1        16 0.00000E+00 0.00000E+00 2.00010E-03 0.00000E+00 4.45153E-19 4.17991E-19
 -1        17 0.00000E+00 0.00000E+00 2.00010E-03 0.00000E+00-4.86716E-20 2.27507E-19
 -1        18 0.00000E+00 0.00000E+00 2.00010E-03 0.00000E+00 6.09490E-19-7.85158E-19
 -1        19 0.00000E+00 0.00000E+00 2.00010E-03 0.00000E+00 5.23083E-19-1.12112E-19
 -1        20 0.00000E+00 0.00000E+00 2.00010E-03 0.00000E+00 2.30452E-19 4.46960E-19
 -3
    1PSTEP                       609         122           1          
  100CL  222 214410.1486          20                     0  122           1
 -4  FORC        4    1
 -5  F1          1    2    1    0
 -5  F2          1    2    2    0
 -5  F3          1    2    3    0
 -5  ALL         1    2    0    0    1ALL
 -1         1-1.50968E+01-1.50968E+01 1.98064E+01
 -1         2-1.50968E+01 1.50968E+01 1.98064E+01
 -1         3-1.50968E+01 1.50968E+01-1.98064E+01
 -1         4-1.50968E+01-1.50968E+01-1.98064E+01
 -1         5 1.50968E+01-1.50968E+01 1.98064E+01
 -1         6 1.50968E+01 1.50968E+01 1.98064E+01
 -1         7 1.50968E+01 1.50968E+01-1.98064E+01
 -1         8 1.50968E+01-1.50968E+01-1.98064E+01
 -1         9 6.03871E+01-5.09851E-15-7.92257E+01
 -1        10 6.03871E+01-6.03871E+01 4.66294E-15
 -1        11 6.03871E+01 7.12467E-15 7.92257E+01
 -1        12 6.03871E+01 6.03871E+01 1.68754E-14
 -1        13 3.53939E-15 6.03871E+01-7.92257E+01
 -1        14 1.78807E-14-6.03871E+01-7.92257E+01
 -1        15 1.04878E-16-6.03871E+01 7.92257E+01
 -1        16-8.74857E-16 6.03871E+01 7.92257E+01
 -1        17-6.03871E+01 1.40282E-15-7.92257E+01
 -1        18-6.03871E+01-6.03871E+01-1.77636E-15
 -1        19-6.03871E+01 5.48056E-15 7.92257E+01
 -1        20-6.03871E+01 6.03871E+01-1.77636E-15
 -3
    1PSTEP                       610         122           1          
  100CL  222 214410.1486          20                     0  122           1
 -4  ERROR       1    1
 -5  STR(%)      1    1    0    0
 -1         1 2.93596E-14
 -1         2 2.93596E-14
 -1         3 2.93596E-14
 -1         4 2.93596E-14
 -1         5 2.93596E-14
 -1         6 2.93596E-14
 -1         7 2.93596E-14
 -1         8 2.93596E-14
 -1         9 2.93596E-14
 -1        10 2.93596E-14
 -1        11 2.93596E-14
 -1        12 2.93596E-14
 -1        13 2.93596E-14
 -1        14 2.93596E-14
 -1        15 2.93596E-14
 -1        16 2.93596E-14
 -1        17 2.93596E-14
 -1        18 2.93596E-14
 -1        19 2.93596E-14
 -1        20 2.93596E-14
 -3
    1PSTEP                       611         123           1          
  100CL  223 216447.5518          20                     0  123           1
 -4  DISP        4    1
 -5  D1          1    2    1    0
 -5  D2          1    2    2    0
 -5  D3          1    2    3    0
 -5  ALL         1    2    0    0    1ALL
 -1         1 0.00000E+00 0.00000E+00 0.00000E+00
 -1         2 0.00000E+00 0.00000E+00 0.00000E+00
 -1         3 0.00000E+00 0.00000E+00 2.00000E-03
 -1         4 0.00000E+00 0.00000E+00 2.00000E-03
 -1         5 0.00000E+00 0.00000E+00 0.00000E+00
 -1         6 0.00000E+00 0.00000E+00 0.00000E+00
 -1         7 0.00000E+00 0.00000E+00 2.00000E-03
 -1         8 0.00000E+00 0.00000E+00 2.00000E-03
 -1         9 0.00000E+00 0.00000E+00 0.00000E+00
 -1        10 0.00000E+00 0.00000E+00 1.00000E-03
 -1        11 0.00000E+00 0.00000E+00 2.00000E-03
 -1        12 0.00000E+00 0.00000E+00 1.00000E-03
 -1        13 0.00000E+00 0.00000E+00 0.00000E+00
 -1        14 0.00000E+00 0.00000E+00 0.00000E+00
 -1        15 0.00000E+00 0.00000E+00 2.00000E-03
 -1        16 0.00000E+00 0.00000E+00 2.00000E-03
 -1        17 0.00000E+00 0.00000E+00 0.00000E+00
 -1        18 0.00000E+00 0.00000E+00 1.00000E-03
 -1        19 0.00000E+00 0.00000E+00 2.00000E-03
 -1        20 0.00000E+00 0.00000E+00 1.00000E-03
 -3
    1PSTEP                       612         123           1          
  100CL  223 216447.5518          20                     0  123           1
 -4  STRESS      6    1
 -5  SXX         1    4    1    1
 -5  SYY         1    4    2    2
 -5  SZZ         1    4    3    3
 -5  SXY         1    4    1    2
 -5  SYZ         1    4    2    3
 -5  SZX         1    4    3    1
 -1         1 1.81307E+02 1.81307E+02 2.37362E+02 0.00000E+00 1.15630E-14 2.01543E-14
 -1         2 1.81307E+02 1.81307E+02 2.37362E+02 0.00000E+00-1.81859E-14-2.26663E-14
 -1         3 1.81307E+02 1.81307E+02 2.37362E+02 0.00000E+00-2.82845E-15-3.35921E-14
 -1         4 1.81307E+02 1.81307E+02 2.37362E+02 0.00000E+00-6.47071E-15 4.93675E-14
 -1         5 1.81307E+02 1.81307E+02 2.37362E+02 0.00000E+00 8.30085E-15-7.09747E-15
 -1         6 1.81307E+02 1.81307E+02 2.37362E+02 0.00000E+00-5.99405E-15 2.42953E-16
 -1         7 1.81307E+02 1.81307E+02 2.37362E+02 0.00000E+00 5.41588E-14 3.96065E-14
 -1         8 1.81307E+02 1.81307E+02 2.37362E+02 0.00000E+00-8.22616E-17-1.05529E-14
 -1         9 1.81323E+02 1.81323E+02 2.37383E+02 0.00000E+00-1.17382E-14-5.73441E-15
 -1        10 1.81323E+02 1.81323E+02 2.37383E+02 0.00000E+00 1.23438E-14 1.07979E-14
 -1        11 1.81323E+02 1.81323E+02 2.37383E+02 0.00000E+00 7.13593E-15 6.27173E-15
 -1        12 1.81323E+02 1.81323E+02 2.37383E+02 0.00000E+00 6.78497E-15 4.81484E-15
 -1        13 1.81323E+02 1.81323E+02 2.37383E+02 0.00000E+00-4.82380E-15-7.10210E-16
 -1        14 1.81323E+02 1.81323E+02 2.37383E+02 0.00000E+00 1.14961E-14 2.50610E-15
 -1        15 1.81323E+02 1.81323E+02 2.37383E+02 0.00000E+00-3.26129E-14 6.98661E-15
 -1        16 1.81323E+02 1.81323E+02 2.37383E+02 0.00000E+00 1.24769E-14 1.17156E-14
 -1        17 1.81323E+02 1.81323E+02 2.37383E+02 0.00000E+00-1.36419E-15 6.37666E-15
 -1        18 1.81323E+02 1.81323E+02 2.37383E+02 0.00000E+00 1.70830E-14-2.20067E-14
 -1        19 1.81323E+02 1.81323E+02 2.37383E+02 0.00000E+00 1.46612E-14-3.14231E-15
 -1        20 1.81323E+02 1.81323E+02 2.37383E+02 0.00000E+00 6.45919E-15 1.25276E-14
 -3
    1PSTEP                       613         123           1          
  100CL  223 216447.5518          20                     0  123           1
 -4  TOSTRAIN    6    1
 -5  EXX         1    4    1    1
 -5  EYY         1    4    2    2
 -5  EZZ         1    4    3    3
 -5  EXY         1    4    1    2
 -5  EYZ         1    4    2    3
 -5  EZX         1    4    3    1
 -1         1 0.00000E+00 0.00000E+00 1.99992E-03 0.00000E+00 4.12546E-19 7.19066E-19
 -1         2 0.00000E+00 0.00000E+00 1.99992E-03 0.00000E+00-6.48839E-19-8.08690E-19
 -1         3 0.00000E+00 0.00000E+00 1.99992E-03 0.00000E+00-1.00914E-19-1.19850E-18
 -1         4 0.00000E+00 0.00000E+00 1.99992E-03 0.00000E+00-2.30863E-19 1.76134E-18
 -1         5 0.00000E+00 0.00000E+00 1.99992E-03 0.00000E+00 2.96159E-19-2.53224E-19
 -1         6 0.00000E+00 0.00000E+00 1.99992E-03 0.00000E+00-2.13856E-19 8.66809E-21
 -1         7 0.00000E+00 0.00000E+00 1.99992E-03 0.00000E+00 1.93228E-18 1.41309E-18
 -1         8 0.00000E+00 0.00000E+00 1.99992E-03 0.00000E+00-2.93494E-21-3.76507E-19
 -1         9 0.00000E+00 0.00000E+00 2.00010E-03 0.00000E+00-4.18795E-19-2.04593E-19
 -1        10 0.00000E+00 0.00000E+00 2.00010E-03 0.00000E+00 4.40404E-19 3.85247E-19
 -1        11 0.00000E+00 0.00000E+00 2.00010E-03 0.00000E+00 2.54597E-19 2.23763E-19
 -1        12 0.00000E+00 0.00000E+00 2.00010E-03 0.00000E+00 2.42075E-19 1.71784E-19
 -1        13 0.00000E+00 0.00000E+00 2.00010E-03 0.00000E+00-1.72104E-19-2.53389E-20
 -1        14 0.00000E+00 0.00000E+00 2.00010E-03 0.00000E+00 4.10158E-19 8.94127E-20
 -1        15 0.00000E+00 0.00000E+00 2.00010E-03 0.00000E+00-1.16356E-18 2.49269E-19
 -1        16 0.00000E+00 0.00000E+00 2.00010E-03 0.00000E+00 4.45153E-19 4.17991E-19
 -1        17 0.00000E+00 0.00000E+00 2.00010E-03 0.00000E+00-4.86716E-20 2.27507E-19
 -1        18 0.00000E+00 0.00000E+00 2.00010E-03 0.00000E+00 6.09490E-19-7.85158E-19
 -1        19 0.00000E+00 0.00000E+00 2.00010E-03 0.00000E+00 5.23083E-19-1.12112E-19
 -1        20 0.00000E+00 0.00000E+00 2.00010E-03 0.00000E+00 2.30452E-19 4.46960E-19
 -3
    1PSTEP                       614         123           1          
  100CL  223 216447.5518          20                     0  123           1
 -4  FORC        4    1
 -5  F1          1    2    1    0
 -5  F2          1    2    2    0
 -5  F3          1    2    3    0
 -5  ALL         1    2    0    0    1ALL
 -1         1-1.51095E+01-1.51095E+01 1.97809E+01
 -1         2-1.51095E+01 1.51095E+01 1.97809E+01
 -1         3-1.51095E+01 1.51095E+01-1.97809E+01
 -1         4-1.51095E+01-1.51095E+01-1.97809E+01
 -1         5 1.51095E+01-1.51095E+01 1.97809E+01
 -1         6 1.51095E+01 1.51095E+01 1.97809E+01
 -1         7 1.51095E+01 1.51095E+01-1.97809E+01
 -1         8 1.51095E+01-1.51095E+01-1.97809E+01
 -1         9 6.04381E+01-2.87791E-15-7.91237E+01
 -1        10 6.04381E+01-6.04381E+01 1.11022E-15
 -1        11 6.04381E+01 7.34656E-15 7.91237E+01
 -1        12 6.04381E+01 6.04381E+01 2.02893E-14
 -1        13-4.31533E-15 6.04381E+01-7.91237E+01
 -1        14 8.33367E-15-6.04381E+01-7.91237E+01
 -1        15 8.98581E-15-6.04381E+01 7.91237E+01
 -1        16 4.57302E-16 6.04381E+01 7.91237E+01
 -1        17-6.04381E+01 1.40405E-15-7.91237E+01
 -1        18-6.04381E+01-6.04381E+01-5.32907E-15
 -1        19-6.04381E+01 3.70297E-15 7.91237E+01
 -1        20-6.04381E+01 6.04381E+01 8.65974E-15
 -3
    1PSTEP                       615         123           1          
  100CL  223 216447.5518          20                     0  123           1
 -4  ERROR       1    1
 -5  STR(%)      1    1    0    0
 -1         1 3.73592E-14
 -1         2 3.73592E-14
 -1         3 3.73592E-14
 -1         4 3.73592E-14
 -1         5 3.73592E-14
 -1         6 3.73592E-14
 -1         7 3.73592E-14
 -1         8 3.73592E-14
 -1         9 3.73592E-14
 -1        10 3.73592E-14
 -1        11 3.73592E-14
 -1        12 3.73592E-14
 -1        13 3.73592E-14
 -1        14 3.73592E-14
 -1        15 3.73592E-14
 -1        16 3.73592E-14
 -1        17 3.73592E-14
 -1        18 3.73592E-14
 -1        19 3.73592E-14
 -1        20 3.73592E-14
 -3
    1PSTEP                       616         124           1          
  100CL  224 218484.9550          20                     0  124           1
 -4  DISP        4    1
 -5  D1          1    2    1    0
 -5  D2          1    2    2    0
 -5  D3          1    2    3    0
 -5  ALL         1    2    0    0    1ALL
 -1         1 0.00000E+00 0.00000E+00 0.00000E+00
 -1         2 0.00000E+00 0.00000E+00 0.00000E+00
 -1         3 0.00000E+00 0.00000E+00 2.00000E-03
 -1         4 0.00000E+00 0.00000E+00 2.00000E-03
 -1         5 0.00000E+00 0.00000E+00 0.00000E+00
 -1         6 0.00000E+00 0.00000E+00 0.00000E+00
 -1         7 0.00000E+00 0.00000E+00 2.00000E-03
 -1         8 0.00000E+00 0.00000E+00 2.00000E-03
 -1         9 0.00000E+00 0.00000E+00 0.00000E+00
 -1        10 0.00000E+00 0.00000E+00 1.00000E-03
 -1        11 0.00000E+00 0.00000E+00 2.00000E-03
 -1        12 0.00000E+00 0.00000E+00 1.00000E-03
 -1        13 0.00000E+00 0.00000E+00 0.00000E+00
 -1        14 0.00000E+00 0.00000E+00 0.00000E+00
 -1        15 0.00000E+00 0.00000E+00 2.00000E-03
 -1        16 0.00000E+00 0.00000E+00 2.00000E-03
 -1        17 0.00000E+00 0.00000E+00 0.00000E+00
 -1        18 0.00000E+00 0.00000E+00 1.00000E-03
 -1        19 0.00000E+00 0.00000E+00 2.00000E-03
 -1        20 0.00000E+00 0.00000E+00 1.00000E-03
 -3
    1PSTEP                       617         124           1          
  100CL  224 218484.9550          20                     0  124           1
 -4  STRESS      6    1
 -5  SXX         1    4    1    1
 -5  SYY         1    4    2    2
 -5  SZZ         1    4    3    3
 -5  SXY         1    4    1    2
 -5  SYZ         1    4    2    3
 -5  SZX         1    4    3    1
 -1         1 1.81459E+02 1.81459E+02 2.37058E+02 0.00000E+00 1.14691E-14 1.99906E-14
 -1         2 1.81459E+02 1.81459E+02 2.37058E+02 0.00000E+00-1.80382E-14-2.24822E-14
 -1         3 1.81459E+02 1.81459E+02 2.37058E+02 0.00000E+00-2.80547E-15-3.33192E-14
 -1         4 1.81459E+02 1.81459E+02 2.37058E+02 0.00000E+00-6.41815E-15 4.89665E-14
 -1         5 1.81459E+02 1.81459E+02 2.37058E+02 0.00000E+00 8.23343E-15-7.03982E-15
 -1         6 1.81459E+02 1.81459E+02 2.37058E+02 0.00000E+00-5.94536E-15 2.40979E-16
 -1         7 1.81459E+02 1.81459E+02 2.37058E+02 0.00000E+00 5.37189E-14 3.92848E-14
 -1         8 1.81459E+02 1.81459E+02 2.37058E+02 0.00000E+00-8.15934E-17-1.04672E-14
 -1         9 1.81475E+02 1.81475E+02 2.37079E+02 0.00000E+00-1.16428E-14-5.68783E-15
 -1        10 1.81475E+02 1.81475E+02 2.37079E+02 0.00000E+00 1.22436E-14 1.07101E-14
 -1        11 1.81475E+02 1.81475E+02 2.37079E+02 0.00000E+00 7.07797E-15 6.22079E-15
 -1        12 1.81475E+02 1.81475E+02 2.37079E+02 0.00000E+00 6.72985E-15 4.77574E-15
 -1        13 1.81475E+02 1.81475E+02 2.37079E+02 0.00000E+00-4.78462E-15-7.04441E-16
 -1        14 1.81475E+02 1.81475E+02 2.37079E+02 0.00000E+00 1.14027E-14 2.48574E-15
 -1        15 1.81475E+02 1.81475E+02 2.37079E+02 0.00000E+00-3.23480E-14 6.92986E-15
 -1        16 1.81475E+02 1.81475E+02 2.37079E+02 0.00000E+00 1.23756E-14 1.16205E-14
 -1        17 1.81475E+02 1.81475E+02 2.37079E+02 0.00000E+00-1.35311E-15 6.32486E-15
 -1        18 1.81475E+02 1.81475E+02 2.37079E+02 0.00000E+00 1.69443E-14-2.18280E-14
 -1        19 1.81475E+02 1.81475E+02 2.37079E+02 0.00000E+00 1.45421E-14-3.11679E-15
 -1        20 1.81475E+02 1.81475E+02 2.37079E+02 0.00000E+00 6.40672E-15 1.24258E-14
 -3
    1PSTEP                       618         124           1          
  100CL  224 218484.9550          20                     0  124           1
 -4  TOSTRAIN    6    1
 -5  EXX         1    4    1    1
 -5  EYY         1    4    2    2
 -5  EZZ         1    4    3    3
 -5  EXY         1    4    1    2
 -5  EYZ         1    4    2    3
 -5  EZX         1    4    3    1
 -1         1 0.00000E+00 0.00000E+00 1.99992E-03 0.00000E+00 4.12546E-19 7.19066E-19
 -1         2 0.00000E+00 0.00000E+00 1.99992E-03 0.00000E+00-6.48839E-19-8.08690E-19
 -1         3 0.00000E+00 0.00000E+00 1.99992E-03 0.00000E+00-1.00914E-19-1.19850E-18
 -1         4 0.00000E+00 0.00000E+00 1.99992E-03 0.00000E+00-2.30863E-19 1.76134E-18
 -1         5 0.00000E+00 0.00000E+00 1.99992E-03 0.00000E+00 2.96159E-19-2.53224E-19
 -1         6 0.00000E+00 0.00000E+00 1.99992E-03 0.00000E+00-2.13856E-19 8.66809E-21
 -1         7 0.00000E+00 0.00000E+00 1.99992E-03 0.00000E+00 1.93228E-18 1.41309E-18
 -1         8 0.00000E+00 0.00000E+00 1.99992E-03 0.00000E+00-2.93494E-21-3.76507E-19
 -1         9 0.00000E+00 0.00000E+00 2.00010E-03 0.00000E+00-4.18795E-19-2.04593E-19
 -1        10 0.00000E+00 0.00000E+00 2.00010E-03 0.00000E+00 4.40404E-19 3.85247E-19
 -1        11 0.00000E+00 0.00000E+00 2.00010E-03 0.00000E+00 2.54597E-19 2.23763E-19
 -1        12 0.00000E+00 0.00000E+00 2.00010E-03 0.00000E+00 2.42075E-19 1.71784E-19
 -1        13 0.00000E+00 0.00000E+00 2.00010E-03 0.00000E+00-1.72104E-19-2.53389E-20
 -1        14 0.00000E+00 0.00000E+00 2.00010E-03 0.00000E+00 4.10158E-19 8.94127E-20
 -1        15 0.00000E+00 0.00000E+00 2.00010E-03 0.00000E+00-1.16356E-18 2.49269E-19
 -1        16 0.00000E+00 0.00000E+00 2.00010E-03 0.00000E+00 4.45153E-19 4.17991E-19
 -1        17 0.00000E+00 0.00000E+00 2.00010E-03 0.00000E+00-4.86716E-20 2.27507E-19
 -1        18 0.00000E+00 0.00000E+00 2.00010E-03 0.00000E+00 6.09490E-19-7.85158E-19
 -1        19 0.00000E+00 0.00000E+00 2.00010E-03 0.00000E+00 5.23083E-19-1.12112E-19
 -1        20 0.00000E+00 0.00000E+00 2.00010E-03 0.00000E+00 2.30452E-19 4.46960E-19
 -3
    1PSTEP                       619         124           1          
  100CL  224 218484.9550          20                     0  124           1
 -4  FORC        4    1
 -5  F1          1    2    1    0
 -5  F2          1    2    2    0
 -5  F3          1    2    3    0
 -5  ALL         1    2    0    0    1ALL
 -1         1-1.51222E+01-1.51222E+01 1.97556E+01
 -1         2-1.51222E+01 1.51222E+01 1.97556E+01
 -1         3-1.51222E+01 1.51222E+01-1.97556E+01
 -1         4-1.51222E+01-1.51222E+01-1.97556E+01
 -1         5 1.51222E+01-1.51222E+01 1.97556E+01
 -1         6 1.51222E+01 1.51222E+01 1.97556E+01
 -1         7 1.51222E+01 1.51222E+01-1.97556E+01
 -1         8 1.51222E+01-1.51222E+01-1.97556E+01
 -1         9 6.04887E+01-2.68347E-15-7.90226E+01
 -1        10 6.04887E+01-6.04887E+01 7.54952E-15
 -1        11 6.04887E+01 2.23938E-15 7.90226E+01
 -1        12 6.04887E+01 6.04887E+01 1.46272E-14
 -1        13-1.34746E-14 6.04887E+01-7.90226E+01
 -1        14 7.89042E-15-6.04887E+01-7.90226E+01
 -1        15-1.67318E-15-6.04887E+01 7.90226E+01
 -1        16-4.87188E-15 6.04887E+01 7.90226E+01
 -1        17-6.04887E+01 3.40367E-15-7.90226E+01
 -1        18-6.04887E+01-6.04887E+01 5.32907E-15
 -1        19-6.04887E+01 3.70175E-15 7.90226E+01
 -1        20-6.04887E+01 6.04887E+01-2.22045E-16
 -3
    1PSTEP                       620         124           1          
  100CL  224 218484.9550          20                     0  124           1
 -4  ERROR       1    1
 -5  STR(%)      1    1    0    0
 -1         1 4.23129E-14
 -1         2 4.23129E-14
 -1         3 4.23129E-14
 -1         4 4.23129E-14
 -1         5 4.23129E-14
 -1         6 4.23129E-14
 -1         7 4.23129E-14
 -1         8 4.23129E-14
 -1         9 4.23129E-14
 -1        10 4.23129E-14
 -1        11 4.23129E-14
 -1        12 4.23129E-14
 -1        13 4.23129E-14
 -1        14 4.23129E-14
 -1        15 4.23129E-14
 -1        16 4.23129E-14
 -1        17 4.23129E-14
 -1        18 4.23129E-14
 -1        19 4.23129E-14
 -1        20 4.23129E-14
 -3
    1PSTEP                       621         125           1          
  100CL  225 221541.0598          20                     0  125           1
 -4  DISP        4    1
 -5  D1          1    2    1    0
 -5  D2          1    2    2    0
 -5  D3          1    2    3    0
 -5  ALL         1    2    0    0    1ALL
 -1         1 0.00000E+00 0.00000E+00 0.00000E+00
 -1         2 0.00000E+00 0.00000E+00 0.00000E+00
 -1         3 0.00000E+00 0.00000E+00 2.00000E-03
 -1         4 0.00000E+00 0.00000E+00 2.00000E-03
 -1         5 0.00000E+00 0.00000E+00 0.00000E+00
 -1         6 0.00000E+00 0.00000E+00 0.00000E+00
 -1         7 0.00000E+00 0.00000E+00 2.00000E-03
 -1         8 0.00000E+00 0.00000E+00 2.00000E-03
 -1         9 0.00000E+00 0.00000E+00 0.00000E+00
 -1        10 0.00000E+00 0.00000E+00 1.00000E-03
 -1        11 0.00000E+00 0.00000E+00 2.00000E-03
 -1        12 0.00000E+00 0.00000E+00 1.00000E-03
 -1        13 0.00000E+00 0.00000E+00 0.00000E+00
 -1        14 0.00000E+00 0.00000E+00 0.00000E+00
 -1        15 0.00000E+00 0.00000E+00 2.00000E-03
 -1        16 0.00000E+00 0.00000E+00 2.00000E-03
 -1        17 0.00000E+00 0.00000E+00 0.00000E+00
 -1        18 0.00000E+00 0.00000E+00 1.00000E-03
 -1        19 0.00000E+00 0.00000E+00 2.00000E-03
 -1        20 0.00000E+00 0.00000E+00 1.00000E-03
 -3
    1PSTEP                       622         125           1          
  100CL  225 221541.0598          20                     0  125           1
 -4  STRESS      6    1
 -5  SXX         1    4    1    1
 -5  SYY         1    4    2    2
 -5  SZZ         1    4    3    3
 -5  SXY         1    4    1    2
 -5  SYZ         1    4    2    3
 -5  SZX         1    4    3    1
 -1         1 1.81684E+02 1.81684E+02 2.36608E+02 0.00000E+00 1.13299E-14 1.97480E-14
 -1         2 1.81684E+02 1.81684E+02 2.36608E+02 0.00000E+00-1.78193E-14-2.22094E-14
 -1         3 1.81684E+02 1.81684E+02 2.36608E+02 0.00000E+00-2.77143E-15-3.29149E-14
 -1         4 1.81684E+02 1.81684E+02 2.36608E+02 0.00000E+00-6.34027E-15 4.83723E-14
 -1         5 1.81684E+02 1.81684E+02 2.36608E+02 0.00000E+00 8.13352E-15-6.95439E-15
 -1         6 1.81684E+02 1.81684E+02 2.36608E+02 0.00000E+00-5.87322E-15 2.38055E-16
 -1         7 1.81684E+02 1.81684E+02 2.36608E+02 0.00000E+00 5.30670E-14 3.88081E-14
 -1         8 1.81684E+02 1.81684E+02 2.36608E+02 0.00000E+00-8.06033E-17-1.03401E-14
 -1         9 1.81700E+02 1.81700E+02 2.36630E+02 0.00000E+00-1.15015E-14-5.61881E-15
 -1        10 1.81700E+02 1.81700E+02 2.36630E+02 0.00000E+00 1.20950E-14 1.05802E-14
 -1        11 1.81700E+02 1.81700E+02 2.36630E+02 0.00000E+00 6.99208E-15 6.14530E-15
 -1        12 1.81700E+02 1.81700E+02 2.36630E+02 0.00000E+00 6.64819E-15 4.71778E-15
 -1        13 1.81700E+02 1.81700E+02 2.36630E+02 0.00000E+00-4.72656E-15-6.95893E-16
 -1        14 1.81700E+02 1.81700E+02 2.36630E+02 0.00000E+00 1.12643E-14 2.45558E-15
 -1        15 1.81700E+02 1.81700E+02 2.36630E+02 0.00000E+00-3.19554E-14 6.84577E-15
 -1        16 1.81700E+02 1.81700E+02 2.36630E+02 0.00000E+00 1.22254E-14 1.14794E-14
 -1        17 1.81700E+02 1.81700E+02 2.36630E+02 0.00000E+00-1.33669E-15 6.24811E-15
 -1        18 1.81700E+02 1.81700E+02 2.36630E+02 0.00000E+00 1.67387E-14-2.15631E-14
 -1        19 1.81700E+02 1.81700E+02 2.36630E+02 0.00000E+00 1.43656E-14-3.07897E-15
 -1        20 1.81700E+02 1.81700E+02 2.36630E+02 0.00000E+00 6.32898E-15 1.22750E-14
 -3
    1PSTEP                       623         125           1          
  100CL  225 221541.0598          20                     0  125           1
 -4  TOSTRAIN    6    1
 -5  EXX         1    4    1    1
 -5  EYY         1    4    2    2
 -5  EZZ         1    4    3    3
 -5  EXY         1    4    1    2
 -5  EYZ         1    4    2    3
 -5  EZX         1    4    3    1
 -1         1 0.00000E+00 0.00000E+00 1.99992E-03 0.00000E+00 4.12546E-19 7.19066E-19
 -1         2 0.00000E+00 0.00000E+00 1.99992E-03 0.00000E+00-6.48839E-19-8.08690E-19
 -1         3 0.00000E+00 0.00000E+00 1.99992E-03 0.00000E+00-1.00914E-19-1.19850E-18
 -1         4 0.00000E+00 0.00000E+00 1.99992E-03 0.00000E+00-2.30863E-19 1.76134E-18
 -1         5 0.00000E+00 0.00000E+00 1.99992E-03 0.00000E+00 2.96159E-19-2.53224E-19
 -1         6 0.00000E+00 0.00000E+00 1.99992E-03 0.00000E+00-2.13856E-19 8.66809E-21
 -1         7 0.00000E+00 0.00000E+00 1.99992E-03 0.00000E+00 1.93228E-18 1.41309E-18
 -1         8 0.00000E+00 0.00000E+00 1.99992E-03 0.00000E+00-2.93494E-21-3.76507E-19
 -1         9 0.00000E+00 0.00000E+00 2.00010E-03 0.00000E+00-4.18795E-19-2.04593E-19
 -1        10 0.00000E+00 0.00000E+00 2.00010E-03 0.00000E+00 4.40404E-19 3.85247E-19
 -1        11 0.00000E+00 0.00000E+00 2.00010E-03 0.00000E+00 2.54597E-19 2.23763E-19
 -1        12 0.00000E+00 0.00000E+00 2.00010E-03 0.00000E+00 2.42075E-19 1.71784E-19
 -1        13 0.00000E+00 0.00000E+00 2.00010E-03 0.00000E+00-1.72104E-19-2.53389E-20
 -1        14 0.00000E+00 0.00000E+00 2.00010E-03 0.00000E+00 4.10158E-19 8.94127E-20
 -1        15 0.00000E+00 0.00000E+00 2.00010E-03 0.00000E+00-1.16356E-18 2.49269E-19
 -1        16 0.00000E+00 0.00000E+00 2.00010E-03 0.00000E+00 4.45153E-19 4.17991E-19
 -1        17 0.00000E+00 0.00000E+00 2.00010E-03 0.00000E+00-4.86716E-20 2.27507E-19
 -1        18 0.00000E+00 0.00000E+00 2.00010E-03 0.00000E+00 6.09490E-19-7.85158E-19
 -1        19 0.00000E+00 0.00000E+00 2.00010E-03 0.00000E+00 5.23083E-19-1.12112E-19
 -1        20 0.00000E+00 0.00000E+00 2.00010E-03 0.00000E+00 2.30452E-19 4.46960E-19
 -3
    1PSTEP                       624         125           1          
  100CL  225 221541.0598          20                     0  125           1
 -4  FORC        4    1
 -5  F1          1    2    1    0
 -5  F2          1    2    2    0
 -5  F3          1    2    3    0
 -5  ALL         1    2    0    0    1ALL
 -1         1-1.51409E+01-1.51409E+01 1.97182E+01
 -1         2-1.51409E+01 1.51409E+01 1.97182E+01
 -1         3-1.51409E+01 1.51409E+01-1.97182E+01
 -1         4-1.51409E+01-1.51409E+01-1.97182E+01
 -1         5 1.51409E+01-1.51409E+01 1.97182E+01
 -1         6 1.51409E+01 1.51409E+01 1.97182E+01
 -1         7 1.51409E+01 1.51409E+01-1.97182E+01
 -1         8 1.51409E+01-1.51409E+01-1.97182E+01
 -1         9 6.05637E+01-6.20819E-15-7.88726E+01
 -1        10 6.05637E+01-6.05637E+01 7.54952E-15
 -1        11 6.05637E+01 2.23915E-15 7.88726E+01
 -1        12 6.05637E+01 6.05637E+01 2.12608E-14
 -1        13-1.22532E-14 6.05637E+01-7.88726E+01
 -1        14 1.03342E-14-6.05637E+01-7.88726E+01
 -1        15 7.20736E-15-6.05637E+01 7.88726E+01
 -1        16 2.45544E-15 6.05637E+01 7.88726E+01
 -1        17-6.05637E+01 5.18184E-15-7.88726E+01
 -1        18-6.05637E+01-6.05637E+01 5.32907E-15
 -1        19-6.05637E+01 1.92359E-15 7.88726E+01
 -1        20-6.05637E+01 6.05637E+01 5.77316E-15
 -3
    1PSTEP                       625         125           1          
  100CL  225 221541.0598          20                     0  125           1
 -4  ERROR       1    1
 -5  STR(%)      1    1    0    0
 -1         1 2.15039E-14
 -1         2 2.15039E-14
 -1         3 2.15039E-14
 -1         4 2.15039E-14
 -1         5 2.15039E-14
 -1         6 2.15039E-14
 -1         7 2.15039E-14
 -1         8 2.15039E-14
 -1         9 2.15039E-14
 -1        10 2.15039E-14
 -1        11 2.15039E-14
 -1        12 2.15039E-14
 -1        13 2.15039E-14
 -1        14 2.15039E-14
 -1        15 2.15039E-14
 -1        16 2.15039E-14
 -1        17 2.15039E-14
 -1        18 2.15039E-14
 -1        19 2.15039E-14
 -1        20 2.15039E-14
 -3
    1PSTEP                       626         126           1          
  100CL  226 223669.1116          20                     0  126           1
 -4  DISP        4    1
 -5  D1          1    2    1    0
 -5  D2          1    2    2    0
 -5  D3          1    2    3    0
 -5  ALL         1    2    0    0    1ALL
 -1         1 0.00000E+00 0.00000E+00 0.00000E+00
 -1         2 0.00000E+00 0.00000E+00 0.00000E+00
 -1         3 0.00000E+00 0.00000E+00 2.00000E-03
 -1         4 0.00000E+00 0.00000E+00 2.00000E-03
 -1         5 0.00000E+00 0.00000E+00 0.00000E+00
 -1         6 0.00000E+00 0.00000E+00 0.00000E+00
 -1         7 0.00000E+00 0.00000E+00 2.00000E-03
 -1         8 0.00000E+00 0.00000E+00 2.00000E-03
 -1         9 0.00000E+00 0.00000E+00 0.00000E+00
 -1        10 0.00000E+00 0.00000E+00 1.00000E-03
 -1        11 0.00000E+00 0.00000E+00 2.00000E-03
 -1        12 0.00000E+00 0.00000E+00 1.00000E-03
 -1        13 0.00000E+00 0.00000E+00 0.00000E+00
 -1        14 0.00000E+00 0.00000E+00 0.00000E+00
 -1        15 0.00000E+00 0.00000E+00 2.00000E-03
 -1        16 0.00000E+00 0.00000E+00 2.00000E-03
 -1        17 0.00000E+00 0.00000E+00 0.00000E+00
 -1        18 0.00000E+00 0.00000E+00 1.00000E-03
 -1        19 0.00000E+00 0.00000E+00 2.00000E-03
 -1        20 0.00000E+00 0.00000E+00 1.00000E-03
 -3
    1PSTEP                       627         126           1          
  100CL  226 223669.1116          20                     0  126           1
 -4  STRESS      6    1
 -5  SXX         1    4    1    1
 -5  SYY         1    4    2    2
 -5  SZZ         1    4    3    3
 -5  SXY         1    4    1    2
 -5  SYZ         1    4    2    3
 -5  SZX         1    4    3    1
 -1         1 1.81839E+02 1.81839E+02 2.36298E+02 0.00000E+00 1.12338E-14 1.95805E-14
 -1         2 1.81839E+02 1.81839E+02 2.36298E+02 0.00000E+00-1.76682E-14-2.20210E-14
 -1         3 1.81839E+02 1.81839E+02 2.36298E+02 0.00000E+00-2.74793E-15-3.26358E-14
 -1         4 1.81839E+02 1.81839E+02 2.36298E+02 0.00000E+00-6.28650E-15 4.79620E-14
 -1         5 1.81839E+02 1.81839E+02 2.36298E+02 0.00000E+00 8.06454E-15-6.89541E-15
 -1         6 1.81839E+02 1.81839E+02 2.36298E+02 0.00000E+00-5.82341E-15 2.36036E-16
 -1         7 1.81839E+02 1.81839E+02 2.36298E+02 0.00000E+00 5.26170E-14 3.84790E-14
 -1         8 1.81839E+02 1.81839E+02 2.36298E+02 0.00000E+00-7.99197E-17-1.02525E-14
 -1         9 1.81855E+02 1.81855E+02 2.36319E+02 0.00000E+00-1.14040E-14-5.57116E-15
 -1        10 1.81855E+02 1.81855E+02 2.36319E+02 0.00000E+00 1.19924E-14 1.04905E-14
 -1        11 1.81855E+02 1.81855E+02 2.36319E+02 0.00000E+00 6.93278E-15 6.09318E-15
 -1        12 1.81855E+02 1.81855E+02 2.36319E+02 0.00000E+00 6.59181E-15 4.67777E-15
 -1        13 1.81855E+02 1.81855E+02 2.36319E+02 0.00000E+00-4.68648E-15-6.89991E-16
 -1        14 1.81855E+02 1.81855E+02 2.36319E+02 0.00000E+00 1.11688E-14 2.43475E-15
 -1        15 1.81855E+02 1.81855E+02 2.36319E+02 0.00000E+00-3.16844E-14 6.78771E-15
 -1        16 1.81855E+02 1.81855E+02 2.36319E+02 0.00000E+00 1.21217E-14 1.13821E-14
 -1        17 1.81855E+02 1.81855E+02 2.36319E+02 0.00000E+00-1.32535E-15 6.19512E-15
 -1        18 1.81855E+02 1.81855E+02 2.36319E+02 0.00000E+00 1.65967E-14-2.13802E-14
 -1        19 1.81855E+02 1.81855E+02 2.36319E+02 0.00000E+00 1.42438E-14-3.05285E-15
 -1        20 1.81855E+02 1.81855E+02 2.36319E+02 0.00000E+00 6.27530E-15 1.21709E-14
 -3
    1PSTEP                       628         126           1          
  100CL  226 223669.1116          20                     0  126           1
 -4  TOSTRAIN    6    1
 -5  EXX         1    4    1    1
 -5  EYY         1    4    2    2
 -5  EZZ         1    4    3    3
 -5  EXY         1    4    1    2
 -5  EYZ         1    4    2    3
 -5  EZX         1    4    3    1
 -1         1 0.00000E+00 0.00000E+00 1.99992E-03 0.00000E+00 4.12546E-19 7.19066E-19
 -1         2 0.00000E+00 0.00000E+00 1.99992E-03 0.00000E+00-6.48839E-19-8.08690E-19
 -1         3 0.00000E+00 0.00000E+00 1.99992E-03 0.00000E+00-1.00914E-19-1.19850E-18
 -1         4 0.00000E+00 0.00000E+00 1.99992E-03 0.00000E+00-2.30863E-19 1.76134E-18
 -1         5 0.00000E+00 0.00000E+00 1.99992E-03 0.00000E+00 2.96159E-19-2.53224E-19
 -1         6 0.00000E+00 0.00000E+00 1.99992E-03 0.00000E+00-2.13856E-19 8.66809E-21
 -1         7 0.00000E+00 0.00000E+00 1.99992E-03 0.00000E+00 1.93228E-18 1.41309E-18
 -1         8 0.00000E+00 0.00000E+00 1.99992E-03 0.00000E+00-2.93494E-21-3.76507E-19
 -1         9 0.00000E+00 0.00000E+00 2.00010E-03 0.00000E+00-4.18795E-19-2.04593E-19
 -1        10 0.00000E+00 0.00000E+00 2.00010E-03 0.00000E+00 4.40404E-19 3.85247E-19
 -1        11 0.00000E+00 0.00000E+00 2.00010E-03 0.00000E+00 2.54597E-19 2.23763E-19
 -1        12 0.00000E+00 0.00000E+00 2.00010E-03 0.00000E+00 2.42075E-19 1.71784E-19
 -1        13 0.00000E+00 0.00000E+00 2.00010E-03 0.00000E+00-1.72104E-19-2.53389E-20
 -1        14 0.00000E+00 0.00000E+00 2.00010E-03 0.00000E+00 4.10158E-19 8.94127E-20
 -1        15 0.00000E+00 0.00000E+00 2.00010E-03 0.00000E+00-1.16356E-18 2.49269E-19
 -1        16 0.00000E+00 0.00000E+00 2.00010E-03 0.00000E+00 4.45153E-19 4.17991E-19
 -1        17 0.00000E+00 0.00000E+00 2.00010E-03 0.00000E+00-4.86716E-20 2.27507E-19
 -1        18 0.00000E+00 0.00000E+00 2.00010E-03 0.00000E+00 6.09490E-19-7.85158E-19
 -1        19 0.00000E+00 0.00000E+00 2.00010E-03 0.00000E+00 5.23083E-19-1.12112E-19
 -1        20 0.00000E+00 0.00000E+00 2.00010E-03 0.00000E+00 2.30452E-19 4.46960E-19
 -3
    1PSTEP                       629         126           1          
  100CL  226 223669.1116          20                     0  126           1
 -4  FORC        4    1
 -5  F1          1    2    1    0
 -5  F2          1    2    2    0
 -5  F3          1    2    3    0
 -5  ALL         1    2    0    0    1ALL
 -1         1-1.51539E+01-1.51539E+01 1.96923E+01
 -1         2-1.51539E+01 1.51539E+01 1.96923E+01
 -1         3-1.51539E+01 1.51539E+01-1.96923E+01
 -1         4-1.51539E+01-1.51539E+01-1.96923E+01
 -1         5 1.51539E+01-1.51539E+01 1.96923E+01
 -1         6 1.51539E+01 1.51539E+01 1.96923E+01
 -1         7 1.51539E+01 1.51539E+01-1.96923E+01
 -1         8 1.51539E+01-1.51539E+01-1.96923E+01
 -1         9 6.06155E+01-4.43168E-15-7.87691E+01
 -1        10 6.06155E+01-6.06155E+01 9.54792E-15
 -1        11 6.06155E+01 5.79170E-15 7.87691E+01
 -1        12 6.06155E+01 6.06155E+01 2.41196E-14
 -1        13-1.17257E-14 6.06155E+01-7.87691E+01
 -1        14 1.61082E-14-6.06155E+01-7.87691E+01
 -1        15 5.43014E-15-6.06155E+01 7.87691E+01
 -1        16 4.89782E-15 6.06155E+01 7.87691E+01
 -1        17-6.06155E+01 6.95944E-15-7.87691E+01
 -1        18-6.06155E+01-6.06155E+01 7.10543E-15
 -1        19-6.06155E+01 3.69870E-15 7.87691E+01
 -1        20-6.06155E+01 6.06155E+01 3.55271E-15
 -3
    1PSTEP                       630         126           1          
  100CL  226 223669.1116          20                     0  126           1
 -4  ERROR       1    1
 -5  STR(%)      1    1    0    0
 -1         1 1.35345E-14
 -1         2 1.35345E-14
 -1         3 1.35345E-14
 -1         4 1.35345E-14
 -1         5 1.35345E-14
 -1         6 1.35345E-14
 -1         7 1.35345E-14
 -1         8 1.35345E-14
 -1         9 1.35345E-14
 -1        10 1.35345E-14
 -1        11 1.35345E-14
 -1        12 1.35345E-14
 -1        13 1.35345E-14
 -1        14 1.35345E-14
 -1        15 1.35345E-14
 -1        16 1.35345E-14
 -1        17 1.35345E-14
 -1        18 1.35345E-14
 -1        19 1.35345E-14
 -1        20 1.35345E-14
 -3
    1PSTEP                       631         127           1          
  100CL  227 225797.1633          20                     0  127           1
 -4  DISP        4    1
 -5  D1          1    2    1    0
 -5  D2          1    2    2    0
 -5  D3          1    2    3    0
 -5  ALL         1    2    0    0    1ALL
 -1         1 0.00000E+00 0.00000E+00 0.00000E+00
 -1         2 0.00000E+00 0.00000E+00 0.00000E+00
 -1         3 0.00000E+00 0.00000E+00 2.00000E-03
 -1         4 0.00000E+00 0.00000E+00 2.00000E-03
 -1         5 0.00000E+00 0.00000E+00 0.00000E+00
 -1         6 0.00000E+00 0.00000E+00 0.00000E+00
 -1         7 0.00000E+00 0.00000E+00 2.00000E-03
 -1         8 0.00000E+00 0.00000E+00 2.00000E-03
 -1         9 0.00000E+00 0.00000E+00 0.00000E+00
 -1        10 0.00000E+00 0.00000E+00 1.00000E-03
 -1        11 0.00000E+00 0.00000E+00 2.00000E-03
 -1        12 0.00000E+00 0.00000E+00 1.00000E-03
 -1        13 0.00000E+00 0.00000E+00 0.00000E+00
 -1        14 0.00000E+00 0.00000E+00 0.00000E+00
 -1        15 0.00000E+00 0.00000E+00 2.00000E-03
 -1        16 0.00000E+00 0.00000E+00 2.00000E-03
 -1        17 0.00000E+00 0.00000E+00 0.00000E+00
 -1        18 0.00000E+00 0.00000E+00 1.00000E-03
 -1        19 0.00000E+00 0.00000E+00 2.00000E-03
 -1        20 0.00000E+00 0.00000E+00 1.00000E-03
 -3
    1PSTEP                       632         127           1          
  100CL  227 225797.1633          20                     0  127           1
 -4  STRESS      6    1
 -5  SXX         1    4    1    1
 -5  SYY         1    4    2    2
 -5  SZZ         1    4    3    3
 -5  SXY         1    4    1    2
 -5  SYZ         1    4    2    3
 -5  SZX         1    4    3    1
 -1         1 1.81993E+02 1.81993E+02 2.35990E+02 0.00000E+00 1.11385E-14 1.94144E-14
 -1         2 1.81993E+02 1.81993E+02 2.35990E+02 0.00000E+00-1.75183E-14-2.18342E-14
 -1         3 1.81993E+02 1.81993E+02 2.35990E+02 0.00000E+00-2.72462E-15-3.23590E-14
 -1         4 1.81993E+02 1.81993E+02 2.35990E+02 0.00000E+00-6.23319E-15 4.75553E-14
 -1         5 1.81993E+02 1.81993E+02 2.35990E+02 0.00000E+00 7.99614E-15-6.83693E-15
 -1         6 1.81993E+02 1.81993E+02 2.35990E+02 0.00000E+00-5.77402E-15 2.34034E-16
 -1         7 1.81993E+02 1.81993E+02 2.35990E+02 0.00000E+00 5.21707E-14 3.81527E-14
 -1         8 1.81993E+02 1.81993E+02 2.35990E+02 0.00000E+00-7.92419E-17-1.01655E-14
 -1         9 1.82009E+02 1.82009E+02 2.36011E+02 0.00000E+00-1.13073E-14-5.52391E-15
 -1        10 1.82009E+02 1.82009E+02 2.36011E+02 0.00000E+00 1.18907E-14 1.04015E-14
 -1        11 1.82009E+02 1.82009E+02 2.36011E+02 0.00000E+00 6.87399E-15 6.04150E-15
 -1        12 1.82009E+02 1.82009E+02 2.36011E+02 0.00000E+00 6.53590E-15 4.63810E-15
 -1        13 1.82009E+02 1.82009E+02 2.36011E+02 0.00000E+00-4.64673E-15-6.84140E-16
 -1        14 1.82009E+02 1.82009E+02 2.36011E+02 0.00000E+00 1.10741E-14 2.41410E-15
 -1        15 1.82009E+02 1.82009E+02 2.36011E+02 0.00000E+00-3.14157E-14 6.73014E-15
 -1        16 1.82009E+02 1.82009E+02 2.36011E+02 0.00000E+00 1.20189E-14 1.12856E-14
 -1        17 1.82009E+02 1.82009E+02 2.36011E+02 0.00000E+00-1.31411E-15 6.14258E-15
 -1        18 1.82009E+02 1.82009E+02 2.36011E+02 0.00000E+00 1.64560E-14-2.11989E-14
 -1        19 1.82009E+02 1.82009E+02 2.36011E+02 0.00000E+00 1.41230E-14-3.02696E-15
 -1        20 1.82009E+02 1.82009E+02 2.36011E+02 0.00000E+00 6.22208E-15 1.20677E-14
 -3
    1PSTEP                       633         127           1          
  100CL  227 225797.1633          20                     0  127           1
 -4  TOSTRAIN    6    1
 -5  EXX         1    4    1    1
 -5  EYY         1    4    2    2
 -5  EZZ         1    4    3    3
 -5  EXY         1    4    1    2
 -5  EYZ         1    4    2    3
 -5  EZX         1    4    3    1
 -1         1 0.00000E+00 0.00000E+00 1.99992E-03 0.00000E+00 4.12546E-19 7.19066E-19
 -1         2 0.00000E+00 0.00000E+00 1.99992E-03 0.00000E+00-6.48839E-19-8.08690E-19
 -1         3 0.00000E+00 0.00000E+00 1.99992E-03 0.00000E+00-1.00914E-19-1.19850E-18
 -1         4 0.00000E+00 0.00000E+00 1.99992E-03 0.00000E+00-2.30863E-19 1.76134E-18
 -1         5 0.00000E+00 0.00000E+00 1.99992E-03 0.00000E+00 2.96159E-19-2.53224E-19
 -1         6 0.00000E+00 0.00000E+00 1.99992E-03 0.00000E+00-2.13856E-19 8.66809E-21
 -1         7 0.00000E+00 0.00000E+00 1.99992E-03 0.00000E+00 1.93228E-18 1.41309E-18
 -1         8 0.00000E+00 0.00000E+00 1.99992E-03 0.00000E+00-2.93494E-21-3.76507E-19
 -1         9 0.00000E+00 0.00000E+00 2.00010E-03 0.00000E+00-4.18795E-19-2.04593E-19
 -1        10 0.00000E+00 0.00000E+00 2.00010E-03 0.00000E+00 4.40404E-19 3.85247E-19
 -1        11 0.00000E+00 0.00000E+00 2.00010E-03 0.00000E+00 2.54597E-19 2.23763E-19
 -1        12 0.00000E+00 0.00000E+00 2.00010E-03 0.00000E+00 2.42075E-19 1.71784E-19
 -1        13 0.00000E+00 0.00000E+00 2.00010E-03 0.00000E+00-1.72104E-19-2.53389E-20
 -1        14 0.00000E+00 0.00000E+00 2.00010E-03 0.00000E+00 4.10158E-19 8.94127E-20
 -1        15 0.00000E+00 0.00000E+00 2.00010E-03 0.00000E+00-1.16356E-18 2.49269E-19
 -1        16 0.00000E+00 0.00000E+00 2.00010E-03 0.00000E+00 4.45153E-19 4.17991E-19
 -1        17 0.00000E+00 0.00000E+00 2.00010E-03 0.00000E+00-4.86716E-20 2.27507E-19
 -1        18 0.00000E+00 0.00000E+00 2.00010E-03 0.00000E+00 6.09490E-19-7.85158E-19
 -1        19 0.00000E+00 0.00000E+00 2.00010E-03 0.00000E+00 5.23083E-19-1.12112E-19
 -1        20 0.00000E+00 0.00000E+00 2.00010E-03 0.00000E+00 2.30452E-19 4.46960E-19
 -3
    1PSTEP                       634         127           1          
  100CL  227 225797.1633          20                     0  127           1
 -4  FORC        4    1
 -5  F1          1    2    1    0
 -5  F2          1    2    2    0
 -5  F3          1    2    3    0
 -5  ALL         1    2    0    0    1ALL
 -1         1-1.51667E+01-1.51667E+01 1.96666E+01
 -1         2-1.51667E+01 1.51667E+01 1.96666E+01
 -1         3-1.51667E+01 1.51667E+01-1.96666E+01
 -1         4-1.51667E+01-1.51667E+01-1.96666E+01
 -1         5 1.51667E+01-1.51667E+01 1.96666E+01
 -1         6 1.51667E+01 1.51667E+01 1.96666E+01
 -1         7 1.51667E+01 1.51667E+01-1.96666E+01
 -1         8 1.51667E+01-1.51667E+01-1.96666E+01
 -1         9 6.06668E+01-6.65197E-15-7.86665E+01
 -1        10 6.06668E+01-6.06668E+01 3.33067E-15
 -1        11 6.06668E+01 7.56790E-15 7.86665E+01
 -1        12 6.06668E+01 6.06668E+01 1.69587E-14
 -1        13 9.03206E-16 6.06668E+01-7.86665E+01
 -1        14 1.01138E-14-6.06668E+01-7.86665E+01
 -1        15-7.00522E-15-6.06668E+01 7.86665E+01
 -1        16-1.98567E-15 6.06668E+01 7.86665E+01
 -1        17-6.06668E+01-1.44744E-16-7.86665E+01
 -1        18-6.06668E+01-6.06668E+01 0.00000E+00
 -1        19-6.06668E+01 3.69746E-15 7.86665E+01
 -1        20-6.06668E+01 6.06668E+01-2.22045E-16
 -3
    1PSTEP                       635         127           1          
  100CL  227 225797.1633          20                     0  127           1
 -4  ERROR       1    1
 -5  STR(%)      1    1    0    0
 -1         1 5.23605E-14
 -1         2 5.23605E-14
 -1         3 5.23605E-14
 -1         4 5.23605E-14
 -1         5 5.23605E-14
 -1         6 5.23605E-14
 -1         7 5.23605E-14
 -1         8 5.23605E-14
 -1         9 5.23605E-14
 -1        10 5.23605E-14
 -1        11 5.23605E-14
 -1        12 5.23605E-14
 -1        13 5.23605E-14
 -1        14 5.23605E-14
 -1        15 5.23605E-14
 -1        16 5.23605E-14
 -1        17 5.23605E-14
 -1        18 5.23605E-14
 -1        19 5.23605E-14
 -1        20 5.23605E-14
 -3
    1PSTEP                       636         128           1          
  100CL  228 228989.2409          20                     0  128           1
 -4  DISP        4    1
 -5  D1          1    2    1    0
 -5  D2          1    2    2    0
 -5  D3          1    2    3    0
 -5  ALL         1    2    0    0    1ALL
 -1         1 0.00000E+00 0.00000E+00 0.00000E+00
 -1         2 0.00000E+00 0.00000E+00 0.00000E+00
 -1         3 0.00000E+00 0.00000E+00 2.00000E-03
 -1         4 0.00000E+00 0.00000E+00 2.00000E-03
 -1         5 0.00000E+00 0.00000E+00 0.00000E+00
 -1         6 0.00000E+00 0.00000E+00 0.00000E+00
 -1         7 0.00000E+00 0.00000E+00 2.00000E-03
 -1         8 0.00000E+00 0.00000E+00 2.00000E-03
 -1         9 0.00000E+00 0.00000E+00 0.00000E+00
 -1        10 0.00000E+00 0.00000E+00 1.00000E-03
 -1        11 0.00000E+00 0.00000E+00 2.00000E-03
 -1        12 0.00000E+00 0.00000E+00 1.00000E-03
 -1        13 0.00000E+00 0.00000E+00 0.00000E+00
 -1        14 0.00000E+00 0.00000E+00 0.00000E+00
 -1        15 0.00000E+00 0.00000E+00 2.00000E-03
 -1        16 0.00000E+00 0.00000E+00 2.00000E-03
 -1        17 0.00000E+00 0.00000E+00 0.00000E+00
 -1        18 0.00000E+00 0.00000E+00 1.00000E-03
 -1        19 0.00000E+00 0.00000E+00 2.00000E-03
 -1        20 0.00000E+00 0.00000E+00 1.00000E-03
 -3
    1PSTEP                       637         128           1          
  100CL  228 228989.2409          20                     0  128           1
 -4  STRESS      6    1
 -5  SXX         1    4    1    1
 -5  SYY         1    4    2    2
 -5  SZZ         1    4    3    3
 -5  SXY         1    4    1    2
 -5  SYZ         1    4    2    3
 -5  SZX         1    4    3    1
 -1         1 1.82221E+02 1.82221E+02 2.35534E+02 0.00000E+00 1.09974E-14 1.91685E-14
 -1         2 1.82221E+02 1.82221E+02 2.35534E+02 0.00000E+00-1.72964E-14-2.15576E-14
 -1         3 1.82221E+02 1.82221E+02 2.35534E+02 0.00000E+00-2.69011E-15-3.19491E-14
 -1         4 1.82221E+02 1.82221E+02 2.35534E+02 0.00000E+00-6.15423E-15 4.69529E-14
 -1         5 1.82221E+02 1.82221E+02 2.35534E+02 0.00000E+00 7.89485E-15-6.75033E-15
 -1         6 1.82221E+02 1.82221E+02 2.35534E+02 0.00000E+00-5.70087E-15 2.31070E-16
 -1         7 1.82221E+02 1.82221E+02 2.35534E+02 0.00000E+00 5.15098E-14 3.76693E-14
 -1         8 1.82221E+02 1.82221E+02 2.35534E+02 0.00000E+00-7.82381E-17-1.00367E-14
 -1         9 1.82237E+02 1.82237E+02 2.35555E+02 0.00000E+00-1.11640E-14-5.45394E-15
 -1        10 1.82237E+02 1.82237E+02 2.35555E+02 0.00000E+00 1.17401E-14 1.02697E-14
 -1        11 1.82237E+02 1.82237E+02 2.35555E+02 0.00000E+00 6.78691E-15 5.96497E-15
 -1        12 1.82237E+02 1.82237E+02 2.35555E+02 0.00000E+00 6.45311E-15 4.57935E-15
 -1        13 1.82237E+02 1.82237E+02 2.35555E+02 0.00000E+00-4.58787E-15-6.75473E-16
 -1        14 1.82237E+02 1.82237E+02 2.35555E+02 0.00000E+00 1.09338E-14 2.38352E-15
 -1        15 1.82237E+02 1.82237E+02 2.35555E+02 0.00000E+00-3.10177E-14 6.64489E-15
 -1        16 1.82237E+02 1.82237E+02 2.35555E+02 0.00000E+00 1.18667E-14 1.11426E-14
 -1        17 1.82237E+02 1.82237E+02 2.35555E+02 0.00000E+00-1.29746E-15 6.06477E-15
 -1        18 1.82237E+02 1.82237E+02 2.35555E+02 0.00000E+00 1.62475E-14-2.09304E-14
 -1        19 1.82237E+02 1.82237E+02 2.35555E+02 0.00000E+00 1.39441E-14-2.98862E-15
 -1        20 1.82237E+02 1.82237E+02 2.35555E+02 0.00000E+00 6.14326E-15 1.19148E-14
 -3
    1PSTEP                       638         128           1          
  100CL  228 228989.2409          20                     0  128           1
 -4  TOSTRAIN    6    1
 -5  EXX         1    4    1    1
 -5  EYY         1    4    2    2
 -5  EZZ         1    4    3    3
 -5  EXY         1    4    1    2
 -5  EYZ         1    4    2    3
 -5  EZX         1    4    3    1
 -1         1 0.00000E+00 0.00000E+00 1.99992E-03 0.00000E+00 4.12546E-19 7.19066E-19
 -1         2 0.00000E+00 0.00000E+00 1.99992E-03 0.00000E+00-6.48839E-19-8.08690E-19
 -1         3 0.00000E+00 0.00000E+00 1.99992E-03 0.00000E+00-1.00914E-19-1.19850E-18
 -1         4 0.00000E+00 0.00000E+00 1.99992E-03 0.00000E+00-2.30863E-19 1.76134E-18
 -1         5 0.00000E+00 0.00000E+00 1.99992E-03 0.00000E+00 2.96159E-19-2.53224E-19
 -1         6 0.00000E+00 0.00000E+00 1.99992E-03 0.00000E+00-2.13856E-19 8.66809E-21
 -1         7 0.00000E+00 0.00000E+00 1.99992E-03 0.00000E+00 1.93228E-18 1.41309E-18
 -1         8 0.00000E+00 0.00000E+00 1.99992E-03 0.00000E+00-2.93494E-21-3.76507E-19
 -1         9 0.00000E+00 0.00000E+00 2.00010E-03 0.00000E+00-4.18795E-19-2.04593E-19
 -1        10 0.00000E+00 0.00000E+00 2.00010E-03 0.00000E+00 4.40404E-19 3.85247E-19
 -1        11 0.00000E+00 0.00000E+00 2.00010E-03 0.00000E+00 2.54597E-19 2.23763E-19
 -1        12 0.00000E+00 0.00000E+00 2.00010E-03 0.00000E+00 2.42075E-19 1.71784E-19
 -1        13 0.00000E+00 0.00000E+00 2.00010E-03 0.00000E+00-1.72104E-19-2.53389E-20
 -1        14 0.00000E+00 0.00000E+00 2.00010E-03 0.00000E+00 4.10158E-19 8.94127E-20
 -1        15 0.00000E+00 0.00000E+00 2.00010E-03 0.00000E+00-1.16356E-18 2.49269E-19
 -1        16 0.00000E+00 0.00000E+00 2.00010E-03 0.00000E+00 4.45153E-19 4.17991E-19
 -1        17 0.00000E+00 0.00000E+00 2.00010E-03 0.00000E+00-4.86716E-20 2.27507E-19
 -1        18 0.00000E+00 0.00000E+00 2.00010E-03 0.00000E+00 6.09490E-19-7.85158E-19
 -1        19 0.00000E+00 0.00000E+00 2.00010E-03 0.00000E+00 5.23083E-19-1.12112E-19
 -1        20 0.00000E+00 0.00000E+00 2.00010E-03 0.00000E+00 2.30452E-19 4.46960E-19
 -3
    1PSTEP                       639         128           1          
  100CL  228 228989.2409          20                     0  128           1
 -4  FORC        4    1
 -5  F1          1    2    1    0
 -5  F2          1    2    2    0
 -5  F3          1    2    3    0
 -5  ALL         1    2    0    0    1ALL
 -1         1-1.51857E+01-1.51857E+01 1.96286E+01
 -1         2-1.51857E+01 1.51857E+01 1.96286E+01
 -1         3-1.51857E+01 1.51857E+01-1.96286E+01
 -1         4-1.51857E+01-1.51857E+01-1.96286E+01
 -1         5 1.51857E+01-1.51857E+01 1.96286E+01
 -1         6 1.51857E+01 1.51857E+01 1.96286E+01
 -1         7 1.51857E+01 1.51857E+01-1.96286E+01
 -1         8 1.51857E+01-1.51857E+01-1.96286E+01
 -1         9 6.07428E+01-4.65333E-15-7.85145E+01
 -1        10 6.07428E+01-6.07428E+01 1.48770E-14
 -1        11 6.07428E+01 7.56767E-15 7.85145E+01
 -1        12 6.07428E+01 6.07428E+01 1.74860E-14
 -1        13-1.40035E-15 6.07428E+01-7.85145E+01
 -1        14 6.34036E-15-6.07428E+01-7.85145E+01
 -1        15 9.89383E-17-6.07428E+01 7.85145E+01
 -1        16-9.53535E-15 6.07428E+01 7.85145E+01
 -1        17-6.07428E+01 1.63345E-15-7.85145E+01
 -1        18-6.07428E+01-6.07428E+01 8.88178E-15
 -1        19-6.07428E+01 1.42911E-16 7.85145E+01
 -1        20-6.07428E+01 6.07428E+01 1.33227E-15
 -3
    1PSTEP                       640         128           1          
  100CL  228 228989.2409          20                     0  128           1
 -4  ERROR       1    1
 -5  STR(%)      1    1    0    0
 -1         1 6.17199E-15
 -1         2 6.17199E-15
 -1         3 6.17199E-15
 -1         4 6.17199E-15
 -1         5 6.17199E-15
 -1         6 6.17199E-15
 -1         7 6.17199E-15
 -1         8 6.17199E-15
 -1         9 6.17199E-15
 -1        10 6.17199E-15
 -1        11 6.17199E-15
 -1        12 6.17199E-15
 -1        13 6.17199E-15
 -1        14 6.17199E-15
 -1        15 6.17199E-15
 -1        16 6.17199E-15
 -1        17 6.17199E-15
 -1        18 6.17199E-15
 -1        19 6.17199E-15
 -1        20 6.17199E-15
 -3
    1PSTEP                       641         129           1          
  100CL  229 231089.9260          20                     0  129           1
 -4  DISP        4    1
 -5  D1          1    2    1    0
 -5  D2          1    2    2    0
 -5  D3          1    2    3    0
 -5  ALL         1    2    0    0    1ALL
 -1         1 0.00000E+00 0.00000E+00 0.00000E+00
 -1         2 0.00000E+00 0.00000E+00 0.00000E+00
 -1         3 0.00000E+00 0.00000E+00 2.00000E-03
 -1         4 0.00000E+00 0.00000E+00 2.00000E-03
 -1         5 0.00000E+00 0.00000E+00 0.00000E+00
 -1         6 0.00000E+00 0.00000E+00 0.00000E+00
 -1         7 0.00000E+00 0.00000E+00 2.00000E-03
 -1         8 0.00000E+00 0.00000E+00 2.00000E-03
 -1         9 0.00000E+00 0.00000E+00 0.00000E+00
 -1        10 0.00000E+00 0.00000E+00 1.00000E-03
 -1        11 0.00000E+00 0.00000E+00 2.00000E-03
 -1        12 0.00000E+00 0.00000E+00 1.00000E-03
 -1        13 0.00000E+00 0.00000E+00 0.00000E+00
 -1        14 0.00000E+00 0.00000E+00 0.00000E+00
 -1        15 0.00000E+00 0.00000E+00 2.00000E-03
 -1        16 0.00000E+00 0.00000E+00 2.00000E-03
 -1        17 0.00000E+00 0.00000E+00 0.00000E+00
 -1        18 0.00000E+00 0.00000E+00 1.00000E-03
 -1        19 0.00000E+00 0.00000E+00 2.00000E-03
 -1        20 0.00000E+00 0.00000E+00 1.00000E-03
 -3
    1PSTEP                       642         129           1          
  100CL  229 231089.9260          20                     0  129           1
 -4  STRESS      6    1
 -5  SXX         1    4    1    1
 -5  SYY         1    4    2    2
 -5  SZZ         1    4    3    3
 -5  SXY         1    4    1    2
 -5  SYZ         1    4    2    3
 -5  SZX         1    4    3    1
 -1         1 1.82370E+02 1.82370E+02 2.35236E+02 0.00000E+00 1.09054E-14 1.90080E-14
 -1         2 1.82370E+02 1.82370E+02 2.35236E+02 0.00000E+00-1.71516E-14-2.13772E-14
 -1         3 1.82370E+02 1.82370E+02 2.35236E+02 0.00000E+00-2.66758E-15-3.16816E-14
 -1         4 1.82370E+02 1.82370E+02 2.35236E+02 0.00000E+00-6.10270E-15 4.65597E-14
 -1         5 1.82370E+02 1.82370E+02 2.35236E+02 0.00000E+00 7.82875E-15-6.69381E-15
 -1         6 1.82370E+02 1.82370E+02 2.35236E+02 0.00000E+00-5.65314E-15 2.29135E-16
 -1         7 1.82370E+02 1.82370E+02 2.35236E+02 0.00000E+00 5.10786E-14 3.73539E-14
 -1         8 1.82370E+02 1.82370E+02 2.35236E+02 0.00000E+00-7.75830E-17-9.95269E-15
 -1         9 1.82386E+02 1.82386E+02 2.35258E+02 0.00000E+00-1.10706E-14-5.40827E-15
 -1        10 1.82386E+02 1.82386E+02 2.35258E+02 0.00000E+00 1.16418E-14 1.01837E-14
 -1        11 1.82386E+02 1.82386E+02 2.35258E+02 0.00000E+00 6.73008E-15 5.91503E-15
 -1        12 1.82386E+02 1.82386E+02 2.35258E+02 0.00000E+00 6.39908E-15 4.54100E-15
 -1        13 1.82386E+02 1.82386E+02 2.35258E+02 0.00000E+00-4.54945E-15-6.69818E-16
 -1        14 1.82386E+02 1.82386E+02 2.35258E+02 0.00000E+00 1.08423E-14 2.36356E-15
 -1        15 1.82386E+02 1.82386E+02 2.35258E+02 0.00000E+00-3.07580E-14 6.58925E-15
 -1        16 1.82386E+02 1.82386E+02 2.35258E+02 0.00000E+00 1.17673E-14 1.10493E-14
 -1        17 1.82386E+02 1.82386E+02 2.35258E+02 0.00000E+00-1.28660E-15 6.01399E-15
 -1        18 1.82386E+02 1.82386E+02 2.35258E+02 0.00000E+00 1.61115E-14-2.07551E-14
 -1        19 1.82386E+02 1.82386E+02 2.35258E+02 0.00000E+00 1.38273E-14-2.96359E-15
 -1        20 1.82386E+02 1.82386E+02 2.35258E+02 0.00000E+00 6.09183E-15 1.18151E-14
 -3
    1PSTEP                       643         129           1          
  100CL  229 231089.9260          20                     0  129           1
 -4  TOSTRAIN    6    1
 -5  EXX         1    4    1    1
 -5  EYY         1    4    2    2
 -5  EZZ         1    4    3    3
 -5  EXY         1    4    1    2
 -5  EYZ         1    4    2    3
 -5  EZX         1    4    3    1
 -1         1 0.00000E+00 0.00000E+00 1.99992E-03 0.00000E+00 4.12546E-19 7.19066E-19
 -1         2 0.00000E+00 0.00000E+00 1.99992E-03 0.00000E+00-6.48839E-19-8.08690E-19
 -1         3 0.00000E+00 0.00000E+00 1.99992E-03 0.00000E+00-1.00914E-19-1.19850E-18
 -1         4 0.00000E+00 0.00000E+00 1.99992E-03 0.00000E+00-2.30863E-19 1.76134E-18
 -1         5 0.00000E+00 0.00000E+00 1.99992E-03 0.00000E+00 2.96159E-19-2.53224E-19
 -1         6 0.00000E+00 0.00000E+00 1.99992E-03 0.00000E+00-2.13856E-19 8.66809E-21
 -1         7 0.00000E+00 0.00000E+00 1.99992E-03 0.00000E+00 1.93228E-18 1.41309E-18
 -1         8 0.00000E+00 0.00000E+00 1.99992E-03 0.00000E+00-2.93494E-21-3.76507E-19
 -1         9 0.00000E+00 0.00000E+00 2.00010E-03 0.00000E+00-4.18795E-19-2.04593E-19
 -1        10 0.00000E+00 0.00000E+00 2.00010E-03 0.00000E+00 4.40404E-19 3.85247E-19
 -1        11 0.00000E+00 0.00000E+00 2.00010E-03 0.00000E+00 2.54597E-19 2.23763E-19
 -1        12 0.00000E+00 0.00000E+00 2.00010E-03 0.00000E+00 2.42075E-19 1.71784E-19
 -1        13 0.00000E+00 0.00000E+00 2.00010E-03 0.00000E+00-1.72104E-19-2.53389E-20
 -1        14 0.00000E+00 0.00000E+00 2.00010E-03 0.00000E+00 4.10158E-19 8.94127E-20
 -1        15 0.00000E+00 0.00000E+00 2.00010E-03 0.00000E+00-1.16356E-18 2.49269E-19
 -1        16 0.00000E+00 0.00000E+00 2.00010E-03 0.00000E+00 4.45153E-19 4.17991E-19
 -1        17 0.00000E+00 0.00000E+00 2.00010E-03 0.00000E+00-4.86716E-20 2.27507E-19
 -1        18 0.00000E+00 0.00000E+00 2.00010E-03 0.00000E+00 6.09490E-19-7.85158E-19
 -1        19 0.00000E+00 0.00000E+00 2.00010E-03 0.00000E+00 5.23083E-19-1.12112E-19
 -1        20 0.00000E+00 0.00000E+00 2.00010E-03 0.00000E+00 2.30452E-19 4.46960E-19
 -3
    1PSTEP                       644         129           1          
  100CL  229 231089.9260          20                     0  129           1
 -4  FORC        4    1
 -5  F1          1    2    1    0
 -5  F2          1    2    2    0
 -5  F3          1    2    3    0
 -5  ALL         1    2    0    0    1ALL
 -1         1-1.51981E+01-1.51981E+01 1.96038E+01
 -1         2-1.51981E+01 1.51981E+01 1.96038E+01
 -1         3-1.51981E+01 1.51981E+01-1.96038E+01
 -1         4-1.51981E+01-1.51981E+01-1.96038E+01
 -1         5 1.51981E+01-1.51981E+01 1.96038E+01
 -1         6 1.51981E+01 1.51981E+01 1.96038E+01
 -1         7 1.51981E+01 1.51981E+01-1.96038E+01
 -1         8 1.51981E+01-1.51981E+01-1.96038E+01
 -1         9 6.07924E+01-7.34547E-15-7.84153E+01
 -1        10 6.07924E+01-6.07924E+01 5.55112E-15
 -1        11 6.07924E+01 3.79276E-15 7.84153E+01
 -1        12 6.07924E+01 6.07924E+01 2.23432E-14
 -1        13 4.81701E-15 6.07924E+01-7.84153E+01
 -1        14 1.30025E-14-6.07924E+01-7.84153E+01
 -1        15-1.58891E-14-6.07924E+01 7.84153E+01
 -1        16-3.54025E-15 6.07924E+01 7.84153E+01
 -1        17-6.07924E+01 3.18895E-15-7.84153E+01
 -1        18-6.07924E+01-6.07924E+01 1.77636E-15
 -1        19-6.07924E+01 1.41714E-16 7.84153E+01
 -1        20-6.07924E+01 6.07924E+01 5.77316E-15
 -3
    1PSTEP                       645         129           1          
  100CL  229 231089.9260          20                     0  129           1
 -4  ERROR       1    1
 -5  STR(%)      1    1    0    0
 -1         1 2.22473E-14
 -1         2 2.22473E-14
 -1         3 2.22473E-14
 -1         4 2.22473E-14
 -1         5 2.22473E-14
 -1         6 2.22473E-14
 -1         7 2.22473E-14
 -1         8 2.22473E-14
 -1         9 2.22473E-14
 -1        10 2.22473E-14
 -1        11 2.22473E-14
 -1        12 2.22473E-14
 -1        13 2.22473E-14
 -1        14 2.22473E-14
 -1        15 2.22473E-14
 -1        16 2.22473E-14
 -1        17 2.22473E-14
 -1        18 2.22473E-14
 -1        19 2.22473E-14
 -1        20 2.22473E-14
 -3
    1PSTEP                       646         130           1          
  100CL  230 233190.6112          20                     0  130           1
 -4  DISP        4    1
 -5  D1          1    2    1    0
 -5  D2          1    2    2    0
 -5  D3          1    2    3    0
 -5  ALL         1    2    0    0    1ALL
 -1         1 0.00000E+00 0.00000E+00 0.00000E+00
 -1         2 0.00000E+00 0.00000E+00 0.00000E+00
 -1         3 0.00000E+00 0.00000E+00 2.00000E-03
 -1         4 0.00000E+00 0.00000E+00 2.00000E-03
 -1         5 0.00000E+00 0.00000E+00 0.00000E+00
 -1         6 0.00000E+00 0.00000E+00 0.00000E+00
 -1         7 0.00000E+00 0.00000E+00 2.00000E-03
 -1         8 0.00000E+00 0.00000E+00 2.00000E-03
 -1         9 0.00000E+00 0.00000E+00 0.00000E+00
 -1        10 0.00000E+00 0.00000E+00 1.00000E-03
 -1        11 0.00000E+00 0.00000E+00 2.00000E-03
 -1        12 0.00000E+00 0.00000E+00 1.00000E-03
 -1        13 0.00000E+00 0.00000E+00 0.00000E+00
 -1        14 0.00000E+00 0.00000E+00 0.00000E+00
 -1        15 0.00000E+00 0.00000E+00 2.00000E-03
 -1        16 0.00000E+00 0.00000E+00 2.00000E-03
 -1        17 0.00000E+00 0.00000E+00 0.00000E+00
 -1        18 0.00000E+00 0.00000E+00 1.00000E-03
 -1        19 0.00000E+00 0.00000E+00 2.00000E-03
 -1        20 0.00000E+00 0.00000E+00 1.00000E-03
 -3
    1PSTEP                       647         130           1          
  100CL  230 233190.6112          20                     0  130           1
 -4  STRESS      6    1
 -5  SXX         1    4    1    1
 -5  SYY         1    4    2    2
 -5  SZZ         1    4    3    3
 -5  SXY         1    4    1    2
 -5  SYZ         1    4    2    3
 -5  SZX         1    4    3    1
 -1         1 1.82517E+02 1.82517E+02 2.34941E+02 0.00000E+00 1.08141E-14 1.88489E-14
 -1         2 1.82517E+02 1.82517E+02 2.34941E+02 0.00000E+00-1.70080E-14-2.11982E-14
 -1         3 1.82517E+02 1.82517E+02 2.34941E+02 0.00000E+00-2.64525E-15-3.14163E-14
 -1         4 1.82517E+02 1.82517E+02 2.34941E+02 0.00000E+00-6.05160E-15 4.61699E-14
 -1         5 1.82517E+02 1.82517E+02 2.34941E+02 0.00000E+00 7.76320E-15-6.63776E-15
 -1         6 1.82517E+02 1.82517E+02 2.34941E+02 0.00000E+00-5.60581E-15 2.27217E-16
 -1         7 1.82517E+02 1.82517E+02 2.34941E+02 0.00000E+00 5.06509E-14 3.70412E-14
 -1         8 1.82517E+02 1.82517E+02 2.34941E+02 0.00000E+00-7.69334E-17-9.86936E-15
 -1         9 1.82534E+02 1.82534E+02 2.34962E+02 0.00000E+00-1.09779E-14-5.36299E-15
 -1        10 1.82534E+02 1.82534E+02 2.34962E+02 0.00000E+00 1.15443E-14 1.00985E-14
 -1        11 1.82534E+02 1.82534E+02 2.34962E+02 0.00000E+00 6.67373E-15 5.86550E-15
 -1        12 1.82534E+02 1.82534E+02 2.34962E+02 0.00000E+00 6.34550E-15 4.50298E-15
 -1        13 1.82534E+02 1.82534E+02 2.34962E+02 0.00000E+00-4.51136E-15-6.64209E-16
 -1        14 1.82534E+02 1.82534E+02 2.34962E+02 0.00000E+00 1.07515E-14 2.34377E-15
 -1        15 1.82534E+02 1.82534E+02 2.34962E+02 0.00000E+00-3.05005E-14 6.53408E-15
 -1        16 1.82534E+02 1.82534E+02 2.34962E+02 0.00000E+00 1.16688E-14 1.09568E-14
 -1        17 1.82534E+02 1.82534E+02 2.34962E+02 0.00000E+00-1.27583E-15 5.96364E-15
 -1        18 1.82534E+02 1.82534E+02 2.34962E+02 0.00000E+00 1.59766E-14-2.05813E-14
 -1        19 1.82534E+02 1.82534E+02 2.34962E+02 0.00000E+00 1.37116E-14-2.93878E-15
 -1        20 1.82534E+02 1.82534E+02 2.34962E+02 0.00000E+00 6.04082E-15 1.17162E-14
 -3
    1PSTEP                       648         130           1          
  100CL  230 233190.6112          20                     0  130           1
 -4  TOSTRAIN    6    1
 -5  EXX         1    4    1    1
 -5  EYY         1    4    2    2
 -5  EZZ         1    4    3    3
 -5  EXY         1    4    1    2
 -5  EYZ         1    4    2    3
 -5  EZX         1    4    3    1
 -1         1 0.00000E+00 0.00000E+00 1.99992E-03 0.00000E+00 4.12546E-19 7.19066E-19
 -1         2 0.00000E+00 0.00000E+00 1.99992E-03 0.00000E+00-6.48839E-19-8.08690E-19
 -1         3 0.00000E+00 0.00000E+00 1.99992E-03 0.00000E+00-1.00914E-19-1.19850E-18
 -1         4 0.00000E+00 0.00000E+00 1.99992E-03 0.00000E+00-2.30863E-19 1.76134E-18
 -1         5 0.00000E+00 0.00000E+00 1.99992E-03 0.00000E+00 2.96159E-19-2.53224E-19
 -1         6 0.00000E+00 0.00000E+00 1.99992E-03 0.00000E+00-2.13856E-19 8.66809E-21
 -1         7 0.00000E+00 0.00000E+00 1.99992E-03 0.00000E+00 1.93228E-18 1.41309E-18
 -1         8 0.00000E+00 0.00000E+00 1.99992E-03 0.00000E+00-2.93494E-21-3.76507E-19
 -1         9 0.00000E+00 0.00000E+00 2.00010E-03 0.00000E+00-4.18795E-19-2.04593E-19
 -1        10 0.00000E+00 0.00000E+00 2.00010E-03 0.00000E+00 4.40404E-19 3.85247E-19
 -1        11 0.00000E+00 0.00000E+00 2.00010E-03 0.00000E+00 2.54597E-19 2.23763E-19
 -1        12 0.00000E+00 0.00000E+00 2.00010E-03 0.00000E+00 2.42075E-19 1.71784E-19
 -1        13 0.00000E+00 0.00000E+00 2.00010E-03 0.00000E+00-1.72104E-19-2.53389E-20
 -1        14 0.00000E+00 0.00000E+00 2.00010E-03 0.00000E+00 4.10158E-19 8.94127E-20
 -1        15 0.00000E+00 0.00000E+00 2.00010E-03 0.00000E+00-1.16356E-18 2.49269E-19
 -1        16 0.00000E+00 0.00000E+00 2.00010E-03 0.00000E+00 4.45153E-19 4.17991E-19
 -1        17 0.00000E+00 0.00000E+00 2.00010E-03 0.00000E+00-4.86716E-20 2.27507E-19
 -1        18 0.00000E+00 0.00000E+00 2.00010E-03 0.00000E+00 6.09490E-19-7.85158E-19
 -1        19 0.00000E+00 0.00000E+00 2.00010E-03 0.00000E+00 5.23083E-19-1.12112E-19
 -1        20 0.00000E+00 0.00000E+00 2.00010E-03 0.00000E+00 2.30452E-19 4.46960E-19
 -3
    1PSTEP                       649         130           1          
  100CL  230 233190.6112          20                     0  130           1
 -4  FORC        4    1
 -5  F1          1    2    1    0
 -5  F2          1    2    2    0
 -5  F3          1    2    3    0
 -5  ALL         1    2    0    0    1ALL
 -1         1-1.52104E+01-1.52104E+01 1.95792E+01
 -1         2-1.52104E+01 1.52104E+01 1.95792E+01
 -1         3-1.52104E+01 1.52104E+01-1.95792E+01
 -1         4-1.52104E+01-1.52104E+01-1.95792E+01
 -1         5 1.52104E+01-1.52104E+01 1.95792E+01
 -1         6 1.52104E+01 1.52104E+01 1.95792E+01
 -1         7 1.52104E+01 1.52104E+01-1.95792E+01
 -1         8 1.52104E+01-1.52104E+01-1.95792E+01
 -1         9 6.08416E+01-6.23510E-15-7.83169E+01
 -1        10 6.08416E+01-6.08416E+01 2.66454E-15
 -1        11 6.08416E+01 7.34532E-15 7.83169E+01
 -1        12 6.08416E+01 6.08416E+01 1.95122E-14
 -1        13-3.39854E-15 6.08416E+01-7.83169E+01
 -1        14 2.85465E-14-6.08416E+01-7.83169E+01
 -1        15 1.87365E-15-6.08416E+01 7.83169E+01
 -1        16-3.09627E-15 6.08416E+01 7.83169E+01
 -1        17-6.08416E+01 1.63583E-15-7.83169E+01
 -1        18-6.08416E+01-6.08416E+01-1.77636E-15
 -1        19-6.08416E+01 1.91688E-15 7.83169E+01
 -1        20-6.08416E+01 6.08416E+01 8.43769E-15
 -3
    1PSTEP                       650         130           1          
  100CL  230 233190.6112          20                     0  130           1
 -4  ERROR       1    1
 -5  STR(%)      1    1    0    0
 -1         1 3.27940E-14
 -1         2 3.27940E-14
 -1         3 3.27940E-14
 -1         4 3.27940E-14
 -1         5 3.27940E-14
 -1         6 3.27940E-14
 -1         7 3.27940E-14
 -1         8 3.27940E-14
 -1         9 3.27940E-14
 -1        10 3.27940E-14
 -1        11 3.27940E-14
 -1        12 3.27940E-14
 -1        13 3.27940E-14
 -1        14 3.27940E-14
 -1        15 3.27940E-14
 -1        16 3.27940E-14
 -1        17 3.27940E-14
 -1        18 3.27940E-14
 -1        19 3.27940E-14
 -1        20 3.27940E-14
 -3
    1PSTEP                       651         131           1          
  100CL  231 236341.6389          20                     0  131           1
 -4  DISP        4    1
 -5  D1          1    2    1    0
 -5  D2          1    2    2    0
 -5  D3          1    2    3    0
 -5  ALL         1    2    0    0    1ALL
 -1         1 0.00000E+00 0.00000E+00 0.00000E+00
 -1         2 0.00000E+00 0.00000E+00 0.00000E+00
 -1         3 0.00000E+00 0.00000E+00 2.00000E-03
 -1         4 0.00000E+00 0.00000E+00 2.00000E-03
 -1         5 0.00000E+00 0.00000E+00 0.00000E+00
 -1         6 0.00000E+00 0.00000E+00 0.00000E+00
 -1         7 0.00000E+00 0.00000E+00 2.00000E-03
 -1         8 0.00000E+00 0.00000E+00 2.00000E-03
 -1         9 0.00000E+00 0.00000E+00 0.00000E+00
 -1        10 0.00000E+00 0.00000E+00 1.00000E-03
 -1        11 0.00000E+00 0.00000E+00 2.00000E-03
 -1        12 0.00000E+00 0.00000E+00 1.00000E-03
 -1        13 0.00000E+00 0.00000E+00 0.00000E+00
 -1        14 0.00000E+00 0.00000E+00 0.00000E+00
 -1        15 0.00000E+00 0.00000E+00 2.00000E-03
 -1        16 0.00000E+00 0.00000E+00 2.00000E-03
 -1        17 0.00000E+00 0.00000E+00 0.00000E+00
 -1        18 0.00000E+00 0.00000E+00 1.00000E-03
 -1        19 0.00000E+00 0.00000E+00 2.00000E-03
 -1        20 0.00000E+00 0.00000E+00 1.00000E-03
 -3
    1PSTEP                       652         131           1          
  100CL  231 236341.6389          20                     0  131           1
 -4  STRESS      6    1
 -5  SXX         1    4    1    1
 -5  SYY         1    4    2    2
 -5  SZZ         1    4    3    3
 -5  SXY         1    4    1    2
 -5  SYZ         1    4    2    3
 -5  SZX         1    4    3    1
 -1         1 1.82736E+02 1.82736E+02 2.34504E+02 0.00000E+00 1.06788E-14 1.86131E-14
 -1         2 1.82736E+02 1.82736E+02 2.34504E+02 0.00000E+00-1.67953E-14-2.09330E-14
 -1         3 1.82736E+02 1.82736E+02 2.34504E+02 0.00000E+00-2.61216E-15-3.10234E-14
 -1         4 1.82736E+02 1.82736E+02 2.34504E+02 0.00000E+00-5.97591E-15 4.55925E-14
 -1         5 1.82736E+02 1.82736E+02 2.34504E+02 0.00000E+00 7.66611E-15-6.55474E-15
 -1         6 1.82736E+02 1.82736E+02 2.34504E+02 0.00000E+00-5.53570E-15 2.24375E-16
 -1         7 1.82736E+02 1.82736E+02 2.34504E+02 0.00000E+00 5.00174E-14 3.65779E-14
 -1         8 1.82736E+02 1.82736E+02 2.34504E+02 0.00000E+00-7.59712E-17-9.74593E-15
 -1         9 1.82752E+02 1.82752E+02 2.34525E+02 0.00000E+00-1.08406E-14-5.29592E-15
 -1        10 1.82752E+02 1.82752E+02 2.34525E+02 0.00000E+00 1.13999E-14 9.97217E-15
 -1        11 1.82752E+02 1.82752E+02 2.34525E+02 0.00000E+00 6.59027E-15 5.79215E-15
 -1        12 1.82752E+02 1.82752E+02 2.34525E+02 0.00000E+00 6.26614E-15 4.44667E-15
 -1        13 1.82752E+02 1.82752E+02 2.34525E+02 0.00000E+00-4.45494E-15-6.55902E-16
 -1        14 1.82752E+02 1.82752E+02 2.34525E+02 0.00000E+00 1.06170E-14 2.31446E-15
 -1        15 1.82752E+02 1.82752E+02 2.34525E+02 0.00000E+00-3.01190E-14 6.45236E-15
 -1        16 1.82752E+02 1.82752E+02 2.34525E+02 0.00000E+00 1.15228E-14 1.08198E-14
 -1        17 1.82752E+02 1.82752E+02 2.34525E+02 0.00000E+00-1.25987E-15 5.88905E-15
 -1        18 1.82752E+02 1.82752E+02 2.34525E+02 0.00000E+00 1.57767E-14-2.03239E-14
 -1        19 1.82752E+02 1.82752E+02 2.34525E+02 0.00000E+00 1.35401E-14-2.90203E-15
 -1        20 1.82752E+02 1.82752E+02 2.34525E+02 0.00000E+00 5.96527E-15 1.15696E-14
 -3
    1PSTEP                       653         131           1          
  100CL  231 236341.6389          20                     0  131           1
 -4  TOSTRAIN    6    1
 -5  EXX         1    4    1    1
 -5  EYY         1    4    2    2
 -5  EZZ         1    4    3    3
 -5  EXY         1    4    1    2
 -5  EYZ         1    4    2    3
 -5  EZX         1    4    3    1
 -1         1 0.00000E+00 0.00000E+00 1.99992E-03 0.00000E+00 4.12546E-19 7.19066E-19
 -1         2 0.00000E+00 0.00000E+00 1.99992E-03 0.00000E+00-6.48839E-19-8.08690E-19
 -1         3 0.00000E+00 0.00000E+00 1.99992E-03 0.00000E+00-1.00914E-19-1.19850E-18
 -1         4 0.00000E+00 0.00000E+00 1.99992E-03 0.00000E+00-2.30863E-19 1.76134E-18
 -1         5 0.00000E+00 0.00000E+00 1.99992E-03 0.00000E+00 2.96159E-19-2.53224E-19
 -1         6 0.00000E+00 0.00000E+00 1.99992E-03 0.00000E+00-2.13856E-19 8.66809E-21
 -1         7 0.00000E+00 0.00000E+00 1.99992E-03 0.00000E+00 1.93228E-18 1.41309E-18
 -1         8 0.00000E+00 0.00000E+00 1.99992E-03 0.00000E+00-2.93494E-21-3.76507E-19
 -1         9 0.00000E+00 0.00000E+00 2.00010E-03 0.00000E+00-4.18795E-19-2.04593E-19
 -1        10 0.00000E+00 0.00000E+00 2.00010E-03 0.00000E+00 4.40404E-19 3.85247E-19
 -1        11 0.00000E+00 0.00000E+00 2.00010E-03 0.00000E+00 2.54597E-19 2.23763E-19
 -1        12 0.00000E+00 0.00000E+00 2.00010E-03 0.00000E+00 2.42075E-19 1.71784E-19
 -1        13 0.00000E+00 0.00000E+00 2.00010E-03 0.00000E+00-1.72104E-19-2.53389E-20
 -1        14 0.00000E+00 0.00000E+00 2.00010E-03 0.00000E+00 4.10158E-19 8.94127E-20
 -1        15 0.00000E+00 0.00000E+00 2.00010E-03 0.00000E+00-1.16356E-18 2.49269E-19
 -1        16 0.00000E+00 0.00000E+00 2.00010E-03 0.00000E+00 4.45153E-19 4.17991E-19
 -1        17 0.00000E+00 0.00000E+00 2.00010E-03 0.00000E+00-4.86716E-20 2.27507E-19
 -1        18 0.00000E+00 0.00000E+00 2.00010E-03 0.00000E+00 6.09490E-19-7.85158E-19
 -1        19 0.00000E+00 0.00000E+00 2.00010E-03 0.00000E+00 5.23083E-19-1.12112E-19
 -1        20 0.00000E+00 0.00000E+00 2.00010E-03 0.00000E+00 2.30452E-19 4.46960E-19
 -3
    1PSTEP                       654         131           1          
  100CL  231 236341.6389          20                     0  131           1
 -4  FORC        4    1
 -5  F1          1    2    1    0
 -5  F2          1    2    2    0
 -5  F3          1    2    3    0
 -5  ALL         1    2    0    0    1ALL
 -1         1-1.52286E+01-1.52286E+01 1.95428E+01
 -1         2-1.52286E+01 1.52286E+01 1.95428E+01
 -1         3-1.52286E+01 1.52286E+01-1.95428E+01
 -1         4-1.52286E+01-1.52286E+01-1.95428E+01
 -1         5 1.52286E+01-1.52286E+01 1.95428E+01
 -1         6 1.52286E+01 1.52286E+01 1.95428E+01
 -1         7 1.52286E+01 1.52286E+01-1.95428E+01
 -1         8 1.52286E+01-1.52286E+01-1.95428E+01
 -1         9 6.09144E+01-4.68056E-15-7.81712E+01
 -1        10 6.09144E+01-6.09144E+01 5.55112E-15
 -1        11 6.09144E+01 5.79079E-15 7.81712E+01
 -1        12 6.09144E+01 6.09144E+01 1.92901E-14
 -1        13 5.51116E-15 6.09144E+01-7.81712E+01
 -1        14 1.76675E-14-6.09144E+01-7.81712E+01
 -1        15-8.78571E-15-6.09144E+01 7.81712E+01
 -1        16-5.31687E-15 6.09144E+01 7.81712E+01
 -1        17-6.09144E+01-1.38770E-16-7.81712E+01
 -1        18-6.09144E+01-6.09144E+01 3.55271E-15
 -1        19-6.09144E+01 1.91513E-15 7.81712E+01
 -1        20-6.09144E+01 6.09144E+01 3.77476E-15
 -3
    1PSTEP                       655         131           1          
  100CL  231 236341.6389          20                     0  131           1
 -4  ERROR       1    1
 -5  STR(%)      1    1    0    0
 -1         1 2.35565E-14
 -1         2 2.35565E-14
 -1         3 2.35565E-14
 -1         4 2.35565E-14
 -1         5 2.35565E-14
 -1         6 2.35565E-14
 -1         7 2.35565E-14
 -1         8 2.35565E-14
 -1         9 2.35565E-14
 -1        10 2.35565E-14
 -1        11 2.35565E-14
 -1        12 2.35565E-14
 -1        13 2.35565E-14
 -1        14 2.35565E-14
 -1        15 2.35565E-14
 -1        16 2.35565E-14
 -1        17 2.35565E-14
 -1        18 2.35565E-14
 -1        19 2.35565E-14
 -1        20 2.35565E-14
 -3
    1PSTEP                       656         132           1          
  100CL  232 238532.6559          20                     0  132           1
 -4  DISP        4    1
 -5  D1          1    2    1    0
 -5  D2          1    2    2    0
 -5  D3          1    2    3    0
 -5  ALL         1    2    0    0    1ALL
 -1         1 0.00000E+00 0.00000E+00 0.00000E+00
 -1         2 0.00000E+00 0.00000E+00 0.00000E+00
 -1         3 0.00000E+00 0.00000E+00 2.00000E-03
 -1         4 0.00000E+00 0.00000E+00 2.00000E-03
 -1         5 0.00000E+00 0.00000E+00 0.00000E+00
 -1         6 0.00000E+00 0.00000E+00 0.00000E+00
 -1         7 0.00000E+00 0.00000E+00 2.00000E-03
 -1         8 0.00000E+00 0.00000E+00 2.00000E-03
 -1         9 0.00000E+00 0.00000E+00 0.00000E+00
 -1        10 0.00000E+00 0.00000E+00 1.00000E-03
 -1        11 0.00000E+00 0.00000E+00 2.00000E-03
 -1        12 0.00000E+00 0.00000E+00 1.00000E-03
 -1        13 0.00000E+00 0.00000E+00 0.00000E+00
 -1        14 0.00000E+00 0.00000E+00 0.00000E+00
 -1        15 0.00000E+00 0.00000E+00 2.00000E-03
 -1        16 0.00000E+00 0.00000E+00 2.00000E-03
 -1        17 0.00000E+00 0.00000E+00 0.00000E+00
 -1        18 0.00000E+00 0.00000E+00 1.00000E-03
 -1        19 0.00000E+00 0.00000E+00 2.00000E-03
 -1        20 0.00000E+00 0.00000E+00 1.00000E-03
 -3
    1PSTEP                       657         132           1          
  100CL  232 238532.6559          20                     0  132           1
 -4  STRESS      6    1
 -5  SXX         1    4    1    1
 -5  SYY         1    4    2    2
 -5  SZZ         1    4    3    3
 -5  SXY         1    4    1    2
 -5  SYZ         1    4    2    3
 -5  SZX         1    4    3    1
 -1         1 1.82887E+02 1.82887E+02 2.34203E+02 0.00000E+00 1.05856E-14 1.84506E-14
 -1         2 1.82887E+02 1.82887E+02 2.34203E+02 0.00000E+00-1.66487E-14-2.07503E-14
 -1         3 1.82887E+02 1.82887E+02 2.34203E+02 0.00000E+00-2.58936E-15-3.07526E-14
 -1         4 1.82887E+02 1.82887E+02 2.34203E+02 0.00000E+00-5.92375E-15 4.51944E-14
 -1         5 1.82887E+02 1.82887E+02 2.34203E+02 0.00000E+00 7.59918E-15-6.49752E-15
 -1         6 1.82887E+02 1.82887E+02 2.34203E+02 0.00000E+00-5.48737E-15 2.22416E-16
 -1         7 1.82887E+02 1.82887E+02 2.34203E+02 0.00000E+00 4.95808E-14 3.62586E-14
 -1         8 1.82887E+02 1.82887E+02 2.34203E+02 0.00000E+00-7.53080E-17-9.66085E-15
 -1         9 1.82903E+02 1.82903E+02 2.34224E+02 0.00000E+00-1.07459E-14-5.24968E-15
 -1        10 1.82903E+02 1.82903E+02 2.34224E+02 0.00000E+00 1.13004E-14 9.88512E-15
 -1        11 1.82903E+02 1.82903E+02 2.34224E+02 0.00000E+00 6.53274E-15 5.74158E-15
 -1        12 1.82903E+02 1.82903E+02 2.34224E+02 0.00000E+00 6.21143E-15 4.40785E-15
 -1        13 1.82903E+02 1.82903E+02 2.34224E+02 0.00000E+00-4.41605E-15-6.50176E-16
 -1        14 1.82903E+02 1.82903E+02 2.34224E+02 0.00000E+00 1.05243E-14 2.29426E-15
 -1        15 1.82903E+02 1.82903E+02 2.34224E+02 0.00000E+00-2.98561E-14 6.39603E-15
 -1        16 1.82903E+02 1.82903E+02 2.34224E+02 0.00000E+00 1.14223E-14 1.07253E-14
 -1        17 1.82903E+02 1.82903E+02 2.34224E+02 0.00000E+00-1.24887E-15 5.83764E-15
 -1        18 1.82903E+02 1.82903E+02 2.34224E+02 0.00000E+00 1.56390E-14-2.01465E-14
 -1        19 1.82903E+02 1.82903E+02 2.34224E+02 0.00000E+00 1.34219E-14-2.87669E-15
 -1        20 1.82903E+02 1.82903E+02 2.34224E+02 0.00000E+00 5.91320E-15 1.14686E-14
 -3
    1PSTEP                       658         132           1          
  100CL  232 238532.6559          20                     0  132           1
 -4  TOSTRAIN    6    1
 -5  EXX         1    4    1    1
 -5  EYY         1    4    2    2
 -5  EZZ         1    4    3    3
 -5  EXY         1    4    1    2
 -5  EYZ         1    4    2    3
 -5  EZX         1    4    3    1
 -1         1 0.00000E+00 0.00000E+00 1.99992E-03 0.00000E+00 4.12546E-19 7.19066E-19
 -1         2 0.00000E+00 0.00000E+00 1.99992E-03 0.00000E+00-6.48839E-19-8.08690E-19
 -1         3 0.00000E+00 0.00000E+00 1.99992E-03 0.00000E+00-1.00914E-19-1.19850E-18
 -1         4 0.00000E+00 0.00000E+00 1.99992E-03 0.00000E+00-2.30863E-19 1.76134E-18
 -1         5 0.00000E+00 0.00000E+00 1.99992E-03 0.00000E+00 2.96159E-19-2.53224E-19
 -1         6 0.00000E+00 0.00000E+00 1.99992E-03 0.00000E+00-2.13856E-19 8.66809E-21
 -1         7 0.00000E+00 0.00000E+00 1.99992E-03 0.00000E+00 1.93228E-18 1.41309E-18
 -1         8 0.00000E+00 0.00000E+00 1.99992E-03 0.00000E+00-2.93494E-21-3.76507E-19
 -1         9 0.00000E+00 0.00000E+00 2.00010E-03 0.00000E+00-4.18795E-19-2.04593E-19
 -1        10 0.00000E+00 0.00000E+00 2.00010E-03 0.00000E+00 4.40404E-19 3.85247E-19
 -1        11 0.00000E+00 0.00000E+00 2.00010E-03 0.00000E+00 2.54597E-19 2.23763E-19
 -1        12 0.00000E+00 0.00000E+00 2.00010E-03 0.00000E+00 2.42075E-19 1.71784E-19
 -1        13 0.00000E+00 0.00000E+00 2.00010E-03 0.00000E+00-1.72104E-19-2.53389E-20
 -1        14 0.00000E+00 0.00000E+00 2.00010E-03 0.00000E+00 4.10158E-19 8.94127E-20
 -1        15 0.00000E+00 0.00000E+00 2.00010E-03 0.00000E+00-1.16356E-18 2.49269E-19
 -1        16 0.00000E+00 0.00000E+00 2.00010E-03 0.00000E+00 4.45153E-19 4.17991E-19
 -1        17 0.00000E+00 0.00000E+00 2.00010E-03 0.00000E+00-4.86716E-20 2.27507E-19
 -1        18 0.00000E+00 0.00000E+00 2.00010E-03 0.00000E+00 6.09490E-19-7.85158E-19
 -1        19 0.00000E+00 0.00000E+00 2.00010E-03 0.00000E+00 5.23083E-19-1.12112E-19
 -1        20 0.00000E+00 0.00000E+00 2.00010E-03 0.00000E+00 2.30452E-19 4.46960E-19
 -3
    1PSTEP                       659         132           1          
  100CL  232 238532.6559          20                     0  132           1
 -4  FORC        4    1
 -5  F1          1    2    1    0
 -5  F2          1    2    2    0
 -5  F3          1    2    3    0
 -5  ALL         1    2    0    0    1ALL
 -1         1-1.52412E+01-1.52412E+01 1.95177E+01
 -1         2-1.52412E+01 1.52412E+01 1.95177E+01
 -1         3-1.52412E+01 1.52412E+01-1.95177E+01
 -1         4-1.52412E+01-1.52412E+01-1.95177E+01
 -1         5 1.52412E+01-1.52412E+01 1.95177E+01
 -1         6 1.52412E+01 1.52412E+01 1.95177E+01
 -1         7 1.52412E+01 1.52412E+01-1.95177E+01
 -1         8 1.52412E+01-1.52412E+01-1.95177E+01
 -1         9 6.09646E+01-1.73832E-15-7.80707E+01
 -1        10 6.09646E+01-6.09646E+01 2.44249E-15
 -1        11 6.09646E+01 7.34494E-15 7.80707E+01
 -1        12 6.09646E+01 6.09646E+01 1.04083E-14
 -1        13-1.59416E-15 6.09646E+01-7.80707E+01
 -1        14 2.27754E-14-6.09646E+01-7.80707E+01
 -1        15 1.07534E-14-6.09646E+01 7.80707E+01
 -1        16-6.20515E-15 6.09646E+01 7.80707E+01
 -1        17-6.09646E+01 3.19311E-15-7.80707E+01
 -1        18-6.09646E+01-6.09646E+01 5.32907E-15
 -1        19-6.09646E+01 3.69027E-15 7.80707E+01
 -1        20-6.09646E+01 6.09646E+01 5.77316E-15
 -3
    1PSTEP                       660         132           1          
  100CL  232 238532.6559          20                     0  132           1
 -4  ERROR       1    1
 -5  STR(%)      1    1    0    0
 -1         1 2.66904E-14
 -1         2 2.66904E-14
 -1         3 2.66904E-14
 -1         4 2.66904E-14
 -1         5 2.66904E-14
 -1         6 2.66904E-14
 -1         7 2.66904E-14
 -1         8 2.66904E-14
 -1         9 2.66904E-14
 -1        10 2.66904E-14
 -1        11 2.66904E-14
 -1        12 2.66904E-14
 -1        13 2.66904E-14
 -1        14 2.66904E-14
 -1        15 2.66904E-14
 -1        16 2.66904E-14
 -1        17 2.66904E-14
 -1        18 2.66904E-14
 -1        19 2.66904E-14
 -1        20 2.66904E-14
 -3
    1PSTEP                       661         133           1          
  100CL  233 240723.6729          20                     0  133           1
 -4  DISP        4    1
 -5  D1          1    2    1    0
 -5  D2          1    2    2    0
 -5  D3          1    2    3    0
 -5  ALL         1    2    0    0    1ALL
 -1         1 0.00000E+00 0.00000E+00 0.00000E+00
 -1         2 0.00000E+00 0.00000E+00 0.00000E+00
 -1         3 0.00000E+00 0.00000E+00 2.00000E-03
 -1         4 0.00000E+00 0.00000E+00 2.00000E-03
 -1         5 0.00000E+00 0.00000E+00 0.00000E+00
 -1         6 0.00000E+00 0.00000E+00 0.00000E+00
 -1         7 0.00000E+00 0.00000E+00 2.00000E-03
 -1         8 0.00000E+00 0.00000E+00 2.00000E-03
 -1         9 0.00000E+00 0.00000E+00 0.00000E+00
 -1        10 0.00000E+00 0.00000E+00 1.00000E-03
 -1        11 0.00000E+00 0.00000E+00 2.00000E-03
 -1        12 0.00000E+00 0.00000E+00 1.00000E-03
 -1        13 0.00000E+00 0.00000E+00 0.00000E+00
 -1        14 0.00000E+00 0.00000E+00 0.00000E+00
 -1        15 0.00000E+00 0.00000E+00 2.00000E-03
 -1        16 0.00000E+00 0.00000E+00 2.00000E-03
 -1        17 0.00000E+00 0.00000E+00 0.00000E+00
 -1        18 0.00000E+00 0.00000E+00 1.00000E-03
 -1        19 0.00000E+00 0.00000E+00 2.00000E-03
 -1        20 0.00000E+00 0.00000E+00 1.00000E-03
 -3
    1PSTEP                       662         133           1          
  100CL  233 240723.6729          20                     0  133           1
 -4  STRESS      6    1
 -5  SXX         1    4    1    1
 -5  SYY         1    4    2    2
 -5  SZZ         1    4    3    3
 -5  SXY         1    4    1    2
 -5  SYZ         1    4    2    3
 -5  SZX         1    4    3    1
 -1         1 1.83036E+02 1.83036E+02 2.33904E+02 0.00000E+00 1.04932E-14 1.82896E-14
 -1         2 1.83036E+02 1.83036E+02 2.33904E+02 0.00000E+00-1.65033E-14-2.05692E-14
 -1         3 1.83036E+02 1.83036E+02 2.33904E+02 0.00000E+00-2.56676E-15-3.04841E-14
 -1         4 1.83036E+02 1.83036E+02 2.33904E+02 0.00000E+00-5.87203E-15 4.47999E-14
 -1         5 1.83036E+02 1.83036E+02 2.33904E+02 0.00000E+00 7.53284E-15-6.44080E-15
 -1         6 1.83036E+02 1.83036E+02 2.33904E+02 0.00000E+00-5.43947E-15 2.20474E-16
 -1         7 1.83036E+02 1.83036E+02 2.33904E+02 0.00000E+00 4.91479E-14 3.59421E-14
 -1         8 1.83036E+02 1.83036E+02 2.33904E+02 0.00000E+00-7.46506E-17-9.57651E-15
 -1         9 1.83052E+02 1.83052E+02 2.33925E+02 0.00000E+00-1.06521E-14-5.20386E-15
 -1        10 1.83052E+02 1.83052E+02 2.33925E+02 0.00000E+00 1.12018E-14 9.79882E-15
 -1        11 1.83052E+02 1.83052E+02 2.33925E+02 0.00000E+00 6.47571E-15 5.69146E-15
 -1        12 1.83052E+02 1.83052E+02 2.33925E+02 0.00000E+00 6.15721E-15 4.36937E-15
 -1        13 1.83052E+02 1.83052E+02 2.33925E+02 0.00000E+00-4.37750E-15-6.44501E-16
 -1        14 1.83052E+02 1.83052E+02 2.33925E+02 0.00000E+00 1.04325E-14 2.27423E-15
 -1        15 1.83052E+02 1.83052E+02 2.33925E+02 0.00000E+00-2.95955E-14 6.34020E-15
 -1        16 1.83052E+02 1.83052E+02 2.33925E+02 0.00000E+00 1.13225E-14 1.06317E-14
 -1        17 1.83052E+02 1.83052E+02 2.33925E+02 0.00000E+00-1.23797E-15 5.78668E-15
 -1        18 1.83052E+02 1.83052E+02 2.33925E+02 0.00000E+00 1.55025E-14-1.99706E-14
 -1        19 1.83052E+02 1.83052E+02 2.33925E+02 0.00000E+00 1.33047E-14-2.85158E-15
 -1        20 1.83052E+02 1.83052E+02 2.33925E+02 0.00000E+00 5.86158E-15 1.13685E-14
 -3
    1PSTEP                       663         133           1          
  100CL  233 240723.6729          20                     0  133           1
 -4  TOSTRAIN    6    1
 -5  EXX         1    4    1    1
 -5  EYY         1    4    2    2
 -5  EZZ         1    4    3    3
 -5  EXY         1    4    1    2
 -5  EYZ         1    4    2    3
 -5  EZX         1    4    3    1
 -1         1 0.00000E+00 0.00000E+00 1.99992E-03 0.00000E+00 4.12546E-19 7.19066E-19
 -1         2 0.00000E+00 0.00000E+00 1.99992E-03 0.00000E+00-6.48839E-19-8.08690E-19
 -1         3 0.00000E+00 0.00000E+00 1.99992E-03 0.00000E+00-1.00914E-19-1.19850E-18
 -1         4 0.00000E+00 0.00000E+00 1.99992E-03 0.00000E+00-2.30863E-19 1.76134E-18
 -1         5 0.00000E+00 0.00000E+00 1.99992E-03 0.00000E+00 2.96159E-19-2.53224E-19
 -1         6 0.00000E+00 0.00000E+00 1.99992E-03 0.00000E+00-2.13856E-19 8.66809E-21
 -1         7 0.00000E+00 0.00000E+00 1.99992E-03 0.00000E+00 1.93228E-18 1.41309E-18
 -1         8 0.00000E+00 0.00000E+00 1.99992E-03 0.00000E+00-2.93494E-21-3.76507E-19
 -1         9 0.00000E+00 0.00000E+00 2.00010E-03 0.00000E+00-4.18795E-19-2.04593E-19
 -1        10 0.00000E+00 0.00000E+00 2.00010E-03 0.00000E+00 4.40404E-19 3.85247E-19
 -1        11 0.00000E+00 0.00000E+00 2.00010E-03 0.00000E+00 2.54597E-19 2.23763E-19
 -1        12 0.00000E+00 0.00000E+00 2.00010E-03 0.00000E+00 2.42075E-19 1.71784E-19
 -1        13 0.00000E+00 0.00000E+00 2.00010E-03 0.00000E+00-1.72104E-19-2.53389E-20
 -1        14 0.00000E+00 0.00000E+00 2.00010E-03 0.00000E+00 4.10158E-19 8.94127E-20
 -1        15 0.00000E+00 0.00000E+00 2.00010E-03 0.00000E+00-1.16356E-18 2.49269E-19
 -1        16 0.00000E+00 0.00000E+00 2.00010E-03 0.00000E+00 4.45153E-19 4.17991E-19
 -1        17 0.00000E+00 0.00000E+00 2.00010E-03 0.00000E+00-4.86716E-20 2.27507E-19
 -1        18 0.00000E+00 0.00000E+00 2.00010E-03 0.00000E+00 6.09490E-19-7.85158E-19
 -1        19 0.00000E+00 0.00000E+00 2.00010E-03 0.00000E+00 5.23083E-19-1.12112E-19
 -1        20 0.00000E+00 0.00000E+00 2.00010E-03 0.00000E+00 2.30452E-19 4.46960E-19
 -3
    1PSTEP                       664         133           1          
  100CL  233 240723.6729          20                     0  133           1
 -4  FORC        4    1
 -5  F1          1    2    1    0
 -5  F2          1    2    2    0
 -5  F3          1    2    3    0
 -5  ALL         1    2    0    0    1ALL
 -1         1-1.52536E+01-1.52536E+01 1.94928E+01
 -1         2-1.52536E+01 1.52536E+01 1.94928E+01
 -1         3-1.52536E+01 1.52536E+01-1.94928E+01
 -1         4-1.52536E+01-1.52536E+01-1.94928E+01
 -1         5 1.52536E+01-1.52536E+01 1.94928E+01
 -1         6 1.52536E+01 1.52536E+01 1.94928E+01
 -1         7 1.52536E+01 1.52536E+01-1.94928E+01
 -1         8 1.52536E+01-1.52536E+01-1.94928E+01
 -1         9 6.10144E+01-8.45502E-15-7.79712E+01
 -1        10 6.10144E+01-6.10144E+01 2.22045E-16
 -1        11 6.10144E+01 5.56843E-15 7.79712E+01
 -1        12 6.10144E+01 6.10144E+01 1.62370E-14
 -1        13-1.03371E-14 6.10144E+01-7.79712E+01
 -1        14 1.05637E-14-6.10144E+01-7.79712E+01
 -1        15 9.44017E-17-6.10144E+01 7.79712E+01
 -1        16-1.76437E-15 6.10144E+01 7.79712E+01
 -1        17-6.10144E+01 1.41795E-15-7.79712E+01
 -1        18-6.10144E+01-6.10144E+01-1.77636E-15
 -1        19-6.10144E+01 5.46543E-15 7.79712E+01
 -1        20-6.10144E+01 6.10144E+01 5.55112E-15
 -3
    1PSTEP                       665         133           1          
  100CL  233 240723.6729          20                     0  133           1
 -4  ERROR       1    1
 -5  STR(%)      1    1    0    0
 -1         1 3.04535E-14
 -1         2 3.04535E-14
 -1         3 3.04535E-14
 -1         4 3.04535E-14
 -1         5 3.04535E-14
 -1         6 3.04535E-14
 -1         7 3.04535E-14
 -1         8 3.04535E-14
 -1         9 3.04535E-14
 -1        10 3.04535E-14
 -1        11 3.04535E-14
 -1        12 3.04535E-14
 -1        13 3.04535E-14
 -1        14 3.04535E-14
 -1        15 3.04535E-14
 -1        16 3.04535E-14
 -1        17 3.04535E-14
 -1        18 3.04535E-14
 -1        19 3.04535E-14
 -1        20 3.04535E-14
 -3
    1PSTEP                       666         134           1          
  100CL  234 244010.1985          20                     0  134           1
 -4  DISP        4    1
 -5  D1          1    2    1    0
 -5  D2          1    2    2    0
 -5  D3          1    2    3    0
 -5  ALL         1    2    0    0    1ALL
 -1         1 0.00000E+00 0.00000E+00 0.00000E+00
 -1         2 0.00000E+00 0.00000E+00 0.00000E+00
 -1         3 0.00000E+00 0.00000E+00 2.00000E-03
 -1         4 0.00000E+00 0.00000E+00 2.00000E-03
 -1         5 0.00000E+00 0.00000E+00 0.00000E+00
 -1         6 0.00000E+00 0.00000E+00 0.00000E+00
 -1         7 0.00000E+00 0.00000E+00 2.00000E-03
 -1         8 0.00000E+00 0.00000E+00 2.00000E-03
 -1         9 0.00000E+00 0.00000E+00 0.00000E+00
 -1        10 0.00000E+00 0.00000E+00 1.00000E-03
 -1        11 0.00000E+00 0.00000E+00 2.00000E-03
 -1        12 0.00000E+00 0.00000E+00 1.00000E-03
 -1        13 0.00000E+00 0.00000E+00 0.00000E+00
 -1        14 0.00000E+00 0.00000E+00 0.00000E+00
 -1        15 0.00000E+00 0.00000E+00 2.00000E-03
 -1        16 0.00000E+00 0.00000E+00 2.00000E-03
 -1        17 0.00000E+00 0.00000E+00 0.00000E+00
 -1        18 0.00000E+00 0.00000E+00 1.00000E-03
 -1        19 0.00000E+00 0.00000E+00 2.00000E-03
 -1        20 0.00000E+00 0.00000E+00 1.00000E-03
 -3
    1PSTEP                       667         134           1          
  100CL  234 244010.1985          20                     0  134           1
 -4  STRESS      6    1
 -5  SXX         1    4    1    1
 -5  SYY         1    4    2    2
 -5  SZZ         1    4    3    3
 -5  SXY         1    4    1    2
 -5  SYZ         1    4    2    3
 -5  SZX         1    4    3    1
 -1         1 1.83257E+02 1.83257E+02 2.33462E+02 0.00000E+00 1.03564E-14 1.80511E-14
 -1         2 1.83257E+02 1.83257E+02 2.33462E+02 0.00000E+00-1.62882E-14-2.03010E-14
 -1         3 1.83257E+02 1.83257E+02 2.33462E+02 0.00000E+00-2.53329E-15-3.00867E-14
 -1         4 1.83257E+02 1.83257E+02 2.33462E+02 0.00000E+00-5.79548E-15 4.42158E-14
 -1         5 1.83257E+02 1.83257E+02 2.33462E+02 0.00000E+00 7.43463E-15-6.35683E-15
 -1         6 1.83257E+02 1.83257E+02 2.33462E+02 0.00000E+00-5.36855E-15 2.17600E-16
 -1         7 1.83257E+02 1.83257E+02 2.33462E+02 0.00000E+00 4.85072E-14 3.54735E-14
 -1         8 1.83257E+02 1.83257E+02 2.33462E+02 0.00000E+00-7.36773E-17-9.45166E-15
 -1         9 1.83273E+02 1.83273E+02 2.33483E+02 0.00000E+00-1.05132E-14-5.13601E-15
 -1        10 1.83273E+02 1.83273E+02 2.33483E+02 0.00000E+00 1.10557E-14 9.67107E-15
 -1        11 1.83273E+02 1.83273E+02 2.33483E+02 0.00000E+00 6.39128E-15 5.61726E-15
 -1        12 1.83273E+02 1.83273E+02 2.33483E+02 0.00000E+00 6.07693E-15 4.31240E-15
 -1        13 1.83273E+02 1.83273E+02 2.33483E+02 0.00000E+00-4.32043E-15-6.36098E-16
 -1        14 1.83273E+02 1.83273E+02 2.33483E+02 0.00000E+00 1.02964E-14 2.24458E-15
 -1        15 1.83273E+02 1.83273E+02 2.33483E+02 0.00000E+00-2.92096E-14 6.25754E-15
 -1        16 1.83273E+02 1.83273E+02 2.33483E+02 0.00000E+00 1.11749E-14 1.04931E-14
 -1        17 1.83273E+02 1.83273E+02 2.33483E+02 0.00000E+00-1.22183E-15 5.71123E-15
 -1        18 1.83273E+02 1.83273E+02 2.33483E+02 0.00000E+00 1.53004E-14-1.97103E-14
 -1        19 1.83273E+02 1.83273E+02 2.33483E+02 0.00000E+00 1.31312E-14-2.81440E-15
 -1        20 1.83273E+02 1.83273E+02 2.33483E+02 0.00000E+00 5.78515E-15 1.12203E-14
 -3
    1PSTEP                       668         134           1          
  100CL  234 244010.1985          20                     0  134           1
 -4  TOSTRAIN    6    1
 -5  EXX         1    4    1    1
 -5  EYY         1    4    2    2
 -5  EZZ         1    4    3    3
 -5  EXY         1    4    1    2
 -5  EYZ         1    4    2    3
 -5  EZX         1    4    3    1
 -1         1 0.00000E+00 0.00000E+00 1.99992E-03 0.00000E+00 4.12546E-19 7.19066E-19
 -1         2 0.00000E+00 0.00000E+00 1.99992E-03 0.00000E+00-6.48839E-19-8.08690E-19
 -1         3 0.00000E+00 0.00000E+00 1.99992E-03 0.00000E+00-1.00914E-19-1.19850E-18
 -1         4 0.00000E+00 0.00000E+00 1.99992E-03 0.00000E+00-2.30863E-19 1.76134E-18
 -1         5 0.00000E+00 0.00000E+00 1.99992E-03 0.00000E+00 2.96159E-19-2.53224E-19
 -1         6 0.00000E+00 0.00000E+00 1.99992E-03 0.00000E+00-2.13856E-19 8.66809E-21
 -1         7 0.00000E+00 0.00000E+00 1.99992E-03 0.00000E+00 1.93228E-18 1.41309E-18
 -1         8 0.00000E+00 0.00000E+00 1.99992E-03 0.00000E+00-2.93494E-21-3.76507E-19
 -1         9 0.00000E+00 0.00000E+00 2.00010E-03 0.00000E+00-4.18795E-19-2.04593E-19
 -1        10 0.00000E+00 0.00000E+00 2.00010E-03 0.00000E+00 4.40404E-19 3.85247E-19
 -1        11 0.00000E+00 0.00000E+00 2.00010E-03 0.00000E+00 2.54597E-19 2.23763E-19
 -1        12 0.00000E+00 0.00000E+00 2.00010E-03 0.00000E+00 2.42075E-19 1.71784E-19
 -1        13 0.00000E+00 0.00000E+00 2.00010E-03 0.00000E+00-1.72104E-19-2.53389E-20
 -1        14 0.00000E+00 0.00000E+00 2.00010E-03 0.00000E+00 4.10158E-19 8.94127E-20
 -1        15 0.00000E+00 0.00000E+00 2.00010E-03 0.00000E+00-1.16356E-18 2.49269E-19
 -1        16 0.00000E+00 0.00000E+00 2.00010E-03 0.00000E+00 4.45153E-19 4.17991E-19
 -1        17 0.00000E+00 0.00000E+00 2.00010E-03 0.00000E+00-4.86716E-20 2.27507E-19
 -1        18 0.00000E+00 0.00000E+00 2.00010E-03 0.00000E+00 6.09490E-19-7.85158E-19
 -1        19 0.00000E+00 0.00000E+00 2.00010E-03 0.00000E+00 5.23083E-19-1.12112E-19
 -1        20 0.00000E+00 0.00000E+00 2.00010E-03 0.00000E+00 2.30452E-19 4.46960E-19
 -3
    1PSTEP                       669         134           1          
  100CL  234 244010.1985          20                     0  134           1
 -4  FORC        4    1
 -5  F1          1    2    1    0
 -5  F2          1    2    2    0
 -5  F3          1    2    3    0
 -5  ALL         1    2    0    0    1ALL
 -1         1-1.52720E+01-1.52720E+01 1.94560E+01
 -1         2-1.52720E+01 1.52720E+01 1.94560E+01
 -1         3-1.52720E+01 1.52720E+01-1.94560E+01
 -1         4-1.52720E+01-1.52720E+01-1.94560E+01
 -1         5 1.52720E+01-1.52720E+01 1.94560E+01
 -1         6 1.52720E+01 1.52720E+01 1.94560E+01
 -1         7 1.52720E+01 1.52720E+01-1.94560E+01
 -1         8 1.52720E+01-1.52720E+01-1.94560E+01
 -1         9 6.10881E+01-6.42863E-15-7.78238E+01
 -1        10 6.10881E+01-6.10881E+01 7.99361E-15
 -1        11 6.10881E+01 3.79185E-15 7.78238E+01
 -1        12 6.10881E+01 6.10881E+01 1.37945E-14
 -1        13 4.54008E-15 6.10881E+01-7.78238E+01
 -1        14 1.45618E-14-6.10881E+01-7.78238E+01
 -1        15 3.64588E-15-6.10881E+01 7.78238E+01
 -1        16-5.53928E-15 6.10881E+01 7.78238E+01
 -1        17-6.10881E+01 3.19609E-15-7.78238E+01
 -1        18-6.10881E+01-6.10881E+01 7.10543E-15
 -1        19-6.10881E+01 1.34580E-16 7.78238E+01
 -1        20-6.10881E+01 6.10881E+01 5.32907E-15
 -3
    1PSTEP                       670         134           1          
  100CL  234 244010.1985          20                     0  134           1
 -4  ERROR       1    1
 -5  STR(%)      1    1    0    0
 -1         1 3.54925E-14
 -1         2 3.54925E-14
 -1         3 3.54925E-14
 -1         4 3.54925E-14
 -1         5 3.54925E-14
 -1         6 3.54925E-14
 -1         7 3.54925E-14
 -1         8 3.54925E-14
 -1         9 3.54925E-14
 -1        10 3.54925E-14
 -1        11 3.54925E-14
 -1        12 3.54925E-14
 -1        13 3.54925E-14
 -1        14 3.54925E-14
 -1        15 3.54925E-14
 -1        16 3.54925E-14
 -1        17 3.54925E-14
 -1        18 3.54925E-14
 -1        19 3.54925E-14
 -1        20 3.54925E-14
 -3
    1PSTEP                       671         135           1          
  100CL  235 246178.0234          20                     0  135           1
 -4  DISP        4    1
 -5  D1          1    2    1    0
 -5  D2          1    2    2    0
 -5  D3          1    2    3    0
 -5  ALL         1    2    0    0    1ALL
 -1         1 0.00000E+00 0.00000E+00 0.00000E+00
 -1         2 0.00000E+00 0.00000E+00 0.00000E+00
 -1         3 0.00000E+00 0.00000E+00 2.00000E-03
 -1         4 0.00000E+00 0.00000E+00 2.00000E-03
 -1         5 0.00000E+00 0.00000E+00 0.00000E+00
 -1         6 0.00000E+00 0.00000E+00 0.00000E+00
 -1         7 0.00000E+00 0.00000E+00 2.00000E-03
 -1         8 0.00000E+00 0.00000E+00 2.00000E-03
 -1         9 0.00000E+00 0.00000E+00 0.00000E+00
 -1        10 0.00000E+00 0.00000E+00 1.00000E-03
 -1        11 0.00000E+00 0.00000E+00 2.00000E-03
 -1        12 0.00000E+00 0.00000E+00 1.00000E-03
 -1        13 0.00000E+00 0.00000E+00 0.00000E+00
 -1        14 0.00000E+00 0.00000E+00 0.00000E+00
 -1        15 0.00000E+00 0.00000E+00 2.00000E-03
 -1        16 0.00000E+00 0.00000E+00 2.00000E-03
 -1        17 0.00000E+00 0.00000E+00 0.00000E+00
 -1        18 0.00000E+00 0.00000E+00 1.00000E-03
 -1        19 0.00000E+00 0.00000E+00 2.00000E-03
 -1        20 0.00000E+00 0.00000E+00 1.00000E-03
 -3
    1PSTEP                       672         135           1          
  100CL  235 246178.0234          20                     0  135           1
 -4  STRESS      6    1
 -5  SXX         1    4    1    1
 -5  SYY         1    4    2    2
 -5  SZZ         1    4    3    3
 -5  SXY         1    4    1    2
 -5  SYZ         1    4    2    3
 -5  SZX         1    4    3    1
 -1         1 1.83402E+02 1.83402E+02 2.33173E+02 0.00000E+00 1.02669E-14 1.78952E-14
 -1         2 1.83402E+02 1.83402E+02 2.33173E+02 0.00000E+00-1.61475E-14-2.01256E-14
 -1         3 1.83402E+02 1.83402E+02 2.33173E+02 0.00000E+00-2.51141E-15-2.98268E-14
 -1         4 1.83402E+02 1.83402E+02 2.33173E+02 0.00000E+00-5.74542E-15 4.38339E-14
 -1         5 1.83402E+02 1.83402E+02 2.33173E+02 0.00000E+00 7.37041E-15-6.30192E-15
 -1         6 1.83402E+02 1.83402E+02 2.33173E+02 0.00000E+00-5.32218E-15 2.15720E-16
 -1         7 1.83402E+02 1.83402E+02 2.33173E+02 0.00000E+00 4.80882E-14 3.51671E-14
 -1         8 1.83402E+02 1.83402E+02 2.33173E+02 0.00000E+00-7.30409E-17-9.37001E-15
 -1         9 1.83418E+02 1.83418E+02 2.33194E+02 0.00000E+00-1.04224E-14-5.09165E-15
 -1        10 1.83418E+02 1.83418E+02 2.33194E+02 0.00000E+00 1.09602E-14 9.58753E-15
 -1        11 1.83418E+02 1.83418E+02 2.33194E+02 0.00000E+00 6.33607E-15 5.56873E-15
 -1        12 1.83418E+02 1.83418E+02 2.33194E+02 0.00000E+00 6.02444E-15 4.27515E-15
 -1        13 1.83418E+02 1.83418E+02 2.33194E+02 0.00000E+00-4.28311E-15-6.30603E-16
 -1        14 1.83418E+02 1.83418E+02 2.33194E+02 0.00000E+00 1.02075E-14 2.22519E-15
 -1        15 1.83418E+02 1.83418E+02 2.33194E+02 0.00000E+00-2.89573E-14 6.20348E-15
 -1        16 1.83418E+02 1.83418E+02 2.33194E+02 0.00000E+00 1.10784E-14 1.04024E-14
 -1        17 1.83418E+02 1.83418E+02 2.33194E+02 0.00000E+00-1.21128E-15 5.66190E-15
 -1        18 1.83418E+02 1.83418E+02 2.33194E+02 0.00000E+00 1.51682E-14-1.95400E-14
 -1        19 1.83418E+02 1.83418E+02 2.33194E+02 0.00000E+00 1.30178E-14-2.79009E-15
 -1        20 1.83418E+02 1.83418E+02 2.33194E+02 0.00000E+00 5.73518E-15 1.11234E-14
 -3
    1PSTEP                       673         135           1          
  100CL  235 246178.0234          20                     0  135           1
 -4  TOSTRAIN    6    1
 -5  EXX         1    4    1    1
 -5  EYY         1    4    2    2
 -5  EZZ         1    4    3    3
 -5  EXY         1    4    1    2
 -5  EYZ         1    4    2    3
 -5  EZX         1    4    3    1
 -1         1 0.00000E+00 0.00000E+00 1.99992E-03 0.00000E+00 4.12546E-19 7.19066E-19
 -1         2 0.00000E+00 0.00000E+00 1.99992E-03 0.00000E+00-6.48839E-19-8.08690E-19
 -1         3 0.00000E+00 0.00000E+00 1.99992E-03 0.00000E+00-1.00914E-19-1.19850E-18
 -1         4 0.00000E+00 0.00000E+00 1.99992E-03 0.00000E+00-2.30863E-19 1.76134E-18
 -1         5 0.00000E+00 0.00000E+00 1.99992E-03 0.00000E+00 2.96159E-19-2.53224E-19
 -1         6 0.00000E+00 0.00000E+00 1.99992E-03 0.00000E+00-2.13856E-19 8.66809E-21
 -1         7 0.00000E+00 0.00000E+00 1.99992E-03 0.00000E+00 1.93228E-18 1.41309E-18
 -1         8 0.00000E+00 0.00000E+00 1.99992E-03 0.00000E+00-2.93494E-21-3.76507E-19
 -1         9 0.00000E+00 0.00000E+00 2.00010E-03 0.00000E+00-4.18795E-19-2.04593E-19
 -1        10 0.00000E+00 0.00000E+00 2.00010E-03 0.00000E+00 4.40404E-19 3.85247E-19
 -1        11 0.00000E+00 0.00000E+00 2.00010E-03 0.00000E+00 2.54597E-19 2.23763E-19
 -1        12 0.00000E+00 0.00000E+00 2.00010E-03 0.00000E+00 2.42075E-19 1.71784E-19
 -1        13 0.00000E+00 0.00000E+00 2.00010E-03 0.00000E+00-1.72104E-19-2.53389E-20
 -1        14 0.00000E+00 0.00000E+00 2.00010E-03 0.00000E+00 4.10158E-19 8.94127E-20
 -1        15 0.00000E+00 0.00000E+00 2.00010E-03 0.00000E+00-1.16356E-18 2.49269E-19
 -1        16 0.00000E+00 0.00000E+00 2.00010E-03 0.00000E+00 4.45153E-19 4.17991E-19
 -1        17 0.00000E+00 0.00000E+00 2.00010E-03 0.00000E+00-4.86716E-20 2.27507E-19
 -1        18 0.00000E+00 0.00000E+00 2.00010E-03 0.00000E+00 6.09490E-19-7.85158E-19
 -1        19 0.00000E+00 0.00000E+00 2.00010E-03 0.00000E+00 5.23083E-19-1.12112E-19
 -1        20 0.00000E+00 0.00000E+00 2.00010E-03 0.00000E+00 2.30452E-19 4.46960E-19
 -3
    1PSTEP                       674         135           1          
  100CL  235 246178.0234          20                     0  135           1
 -4  FORC        4    1
 -5  F1          1    2    1    0
 -5  F2          1    2    2    0
 -5  F3          1    2    3    0
 -5  ALL         1    2    0    0    1ALL
 -1         1-1.52841E+01-1.52841E+01 1.94319E+01
 -1         2-1.52841E+01 1.52841E+01 1.94319E+01
 -1         3-1.52841E+01 1.52841E+01-1.94319E+01
 -1         4-1.52841E+01-1.52841E+01-1.94319E+01
 -1         5 1.52841E+01-1.52841E+01 1.94319E+01
 -1         6 1.52841E+01 1.52841E+01 1.94319E+01
 -1         7 1.52841E+01 1.52841E+01-1.94319E+01
 -1         8 1.52841E+01-1.52841E+01-1.94319E+01
 -1         9 6.11363E+01-3.12557E-15-7.77274E+01
 -1        10 6.11363E+01-6.11363E+01 1.77636E-15
 -1        11 6.11363E+01 7.56646E-15 7.77274E+01
 -1        12 6.11363E+01 6.11363E+01 1.25455E-14
 -1        13-7.53349E-15 6.11363E+01-7.77274E+01
 -1        14 1.10099E-14-6.11363E+01-7.77274E+01
 -1        15-1.23421E-14-6.11363E+01 7.77274E+01
 -1        16-8.20392E-15 6.11363E+01 7.77274E+01
 -1        17-6.11363E+01 5.19565E-15-7.77274E+01
 -1        18-6.11363E+01-6.11363E+01 0.00000E+00
 -1        19-6.11363E+01 5.46249E-15 7.77274E+01
 -1        20-6.11363E+01 6.11363E+01 3.77476E-15
 -3
    1PSTEP                       675         135           1          
  100CL  235 246178.0234          20                     0  135           1
 -4  ERROR       1    1
 -5  STR(%)      1    1    0    0
 -1         1 1.62096E-14
 -1         2 1.62096E-14
 -1         3 1.62096E-14
 -1         4 1.62096E-14
 -1         5 1.62096E-14
 -1         6 1.62096E-14
 -1         7 1.62096E-14
 -1         8 1.62096E-14
 -1         9 1.62096E-14
 -1        10 1.62096E-14
 -1        11 1.62096E-14
 -1        12 1.62096E-14
 -1        13 1.62096E-14
 -1        14 1.62096E-14
 -1        15 1.62096E-14
 -1        16 1.62096E-14
 -1        17 1.62096E-14
 -1        18 1.62096E-14
 -1        19 1.62096E-14
 -1        20 1.62096E-14
 -3
    1PSTEP                       676         136           1          
  100CL  236 248345.8484          20                     0  136           1
 -4  DISP        4    1
 -5  D1          1    2    1    0
 -5  D2          1    2    2    0
 -5  D3          1    2    3    0
 -5  ALL         1    2    0    0    1ALL
 -1         1 0.00000E+00 0.00000E+00 0.00000E+00
 -1         2 0.00000E+00 0.00000E+00 0.00000E+00
 -1         3 0.00000E+00 0.00000E+00 2.00000E-03
 -1         4 0.00000E+00 0.00000E+00 2.00000E-03
 -1         5 0.00000E+00 0.00000E+00 0.00000E+00
 -1         6 0.00000E+00 0.00000E+00 0.00000E+00
 -1         7 0.00000E+00 0.00000E+00 2.00000E-03
 -1         8 0.00000E+00 0.00000E+00 2.00000E-03
 -1         9 0.00000E+00 0.00000E+00 0.00000E+00
 -1        10 0.00000E+00 0.00000E+00 1.00000E-03
 -1        11 0.00000E+00 0.00000E+00 2.00000E-03
 -1        12 0.00000E+00 0.00000E+00 1.00000E-03
 -1        13 0.00000E+00 0.00000E+00 0.00000E+00
 -1        14 0.00000E+00 0.00000E+00 0.00000E+00
 -1        15 0.00000E+00 0.00000E+00 2.00000E-03
 -1        16 0.00000E+00 0.00000E+00 2.00000E-03
 -1        17 0.00000E+00 0.00000E+00 0.00000E+00
 -1        18 0.00000E+00 0.00000E+00 1.00000E-03
 -1        19 0.00000E+00 0.00000E+00 2.00000E-03
 -1        20 0.00000E+00 0.00000E+00 1.00000E-03
 -3
    1PSTEP                       677         136           1          
  100CL  236 248345.8484          20                     0  136           1
 -4  STRESS      6    1
 -5  SXX         1    4    1    1
 -5  SYY         1    4    2    2
 -5  SZZ         1    4    3    3
 -5  SXY         1    4    1    2
 -5  SYZ         1    4    2    3
 -5  SZX         1    4    3    1
 -1         1 1.83545E+02 1.83545E+02 2.32886E+02 0.00000E+00 1.01782E-14 1.77406E-14
 -1         2 1.83545E+02 1.83545E+02 2.32886E+02 0.00000E+00-1.60080E-14-1.99518E-14
 -1         3 1.83545E+02 1.83545E+02 2.32886E+02 0.00000E+00-2.48972E-15-2.95691E-14
 -1         4 1.83545E+02 1.83545E+02 2.32886E+02 0.00000E+00-5.69579E-15 4.34552E-14
 -1         5 1.83545E+02 1.83545E+02 2.32886E+02 0.00000E+00 7.30675E-15-6.24748E-15
 -1         6 1.83545E+02 1.83545E+02 2.32886E+02 0.00000E+00-5.27621E-15 2.13857E-16
 -1         7 1.83545E+02 1.83545E+02 2.32886E+02 0.00000E+00 4.76728E-14 3.48633E-14
 -1         8 1.83545E+02 1.83545E+02 2.32886E+02 0.00000E+00-7.24100E-17-9.28907E-15
 -1         9 1.83561E+02 1.83561E+02 2.32907E+02 0.00000E+00-1.03324E-14-5.04766E-15
 -1        10 1.83561E+02 1.83561E+02 2.32907E+02 0.00000E+00 1.08655E-14 9.50471E-15
 -1        11 1.83561E+02 1.83561E+02 2.32907E+02 0.00000E+00 6.28134E-15 5.52063E-15
 -1        12 1.83561E+02 1.83561E+02 2.32907E+02 0.00000E+00 5.97240E-15 4.23822E-15
 -1        13 1.83561E+02 1.83561E+02 2.32907E+02 0.00000E+00-4.24611E-15-6.25156E-16
 -1        14 1.83561E+02 1.83561E+02 2.32907E+02 0.00000E+00 1.01193E-14 2.20597E-15
 -1        15 1.83561E+02 1.83561E+02 2.32907E+02 0.00000E+00-2.87072E-14 6.14990E-15
 -1        16 1.83561E+02 1.83561E+02 2.32907E+02 0.00000E+00 1.09827E-14 1.03126E-14
 -1        17 1.83561E+02 1.83561E+02 2.32907E+02 0.00000E+00-1.20081E-15 5.61299E-15
 -1        18 1.83561E+02 1.83561E+02 2.32907E+02 0.00000E+00 1.50372E-14-1.93712E-14
 -1        19 1.83561E+02 1.83561E+02 2.32907E+02 0.00000E+00 1.29054E-14-2.76599E-15
 -1        20 1.83561E+02 1.83561E+02 2.32907E+02 0.00000E+00 5.68564E-15 1.10273E-14
 -3
    1PSTEP                       678         136           1          
  100CL  236 248345.8484          20                     0  136           1
 -4  TOSTRAIN    6    1
 -5  EXX         1    4    1    1
 -5  EYY         1    4    2    2
 -5  EZZ         1    4    3    3
 -5  EXY         1    4    1    2
 -5  EYZ         1    4    2    3
 -5  EZX         1    4    3    1
 -1         1 0.00000E+00 0.00000E+00 1.99992E-03 0.00000E+00 4.12546E-19 7.19066E-19
 -1         2 0.00000E+00 0.00000E+00 1.99992E-03 0.00000E+00-6.48839E-19-8.08690E-19
 -1         3 0.00000E+00 0.00000E+00 1.99992E-03 0.00000E+00-1.00914E-19-1.19850E-18
 -1         4 0.00000E+00 0.00000E+00 1.99992E-03 0.00000E+00-2.30863E-19 1.76134E-18
 -1         5 0.00000E+00 0.00000E+00 1.99992E-03 0.00000E+00 2.96159E-19-2.53224E-19
 -1         6 0.00000E+00 0.00000E+00 1.99992E-03 0.00000E+00-2.13856E-19 8.66809E-21
 -1         7 0.00000E+00 0.00000E+00 1.99992E-03 0.00000E+00 1.93228E-18 1.41309E-18
 -1         8 0.00000E+00 0.00000E+00 1.99992E-03 0.00000E+00-2.93494E-21-3.76507E-19
 -1         9 0.00000E+00 0.00000E+00 2.00010E-03 0.00000E+00-4.18795E-19-2.04593E-19
 -1        10 0.00000E+00 0.00000E+00 2.00010E-03 0.00000E+00 4.40404E-19 3.85247E-19
 -1        11 0.00000E+00 0.00000E+00 2.00010E-03 0.00000E+00 2.54597E-19 2.23763E-19
 -1        12 0.00000E+00 0.00000E+00 2.00010E-03 0.00000E+00 2.42075E-19 1.71784E-19
 -1        13 0.00000E+00 0.00000E+00 2.00010E-03 0.00000E+00-1.72104E-19-2.53389E-20
 -1        14 0.00000E+00 0.00000E+00 2.00010E-03 0.00000E+00 4.10158E-19 8.94127E-20
 -1        15 0.00000E+00 0.00000E+00 2.00010E-03 0.00000E+00-1.16356E-18 2.49269E-19
 -1        16 0.00000E+00 0.00000E+00 2.00010E-03 0.00000E+00 4.45153E-19 4.17991E-19
 -1        17 0.00000E+00 0.00000E+00 2.00010E-03 0.00000E+00-4.86716E-20 2.27507E-19
 -1        18 0.00000E+00 0.00000E+00 2.00010E-03 0.00000E+00 6.09490E-19-7.85158E-19
 -1        19 0.00000E+00 0.00000E+00 2.00010E-03 0.00000E+00 5.23083E-19-1.12112E-19
 -1        20 0.00000E+00 0.00000E+00 2.00010E-03 0.00000E+00 2.30452E-19 4.46960E-19
 -3
    1PSTEP                       679         136           1          
  100CL  236 248345.8484          20                     0  136           1
 -4  FORC        4    1
 -5  F1          1    2    1    0
 -5  F2          1    2    2    0
 -5  F3          1    2    3    0
 -5  ALL         1    2    0    0    1ALL
 -1         1-1.52960E+01-1.52960E+01 1.94080E+01
 -1         2-1.52960E+01 1.52960E+01 1.94080E+01
 -1         3-1.52960E+01 1.52960E+01-1.94080E+01
 -1         4-1.52960E+01-1.52960E+01-1.94080E+01
 -1         5 1.52960E+01-1.52960E+01 1.94080E+01
 -1         6 1.52960E+01 1.52960E+01 1.94080E+01
 -1         7 1.52960E+01 1.52960E+01-1.94080E+01
 -1         8 1.52960E+01-1.52960E+01-1.94080E+01
 -1         9 6.11841E+01-6.65038E-15-7.76319E+01
 -1        10 6.11841E+01-6.11841E+01 5.55112E-15
 -1        11 6.11841E+01 7.34427E-15 7.76319E+01
 -1        12 6.11841E+01 6.11841E+01 1.40166E-14
 -1        13-5.20192E-15 6.11841E+01-7.76319E+01
 -1        14 7.01386E-15-6.11841E+01-7.76319E+01
 -1        15-1.68479E-15-6.11841E+01 7.76319E+01
 -1        16 2.23208E-15 6.11841E+01 7.76319E+01
 -1        17-6.11841E+01 3.42045E-15-7.76319E+01
 -1        18-6.11841E+01-6.11841E+01 5.32907E-15
 -1        19-6.11841E+01 3.68498E-15 7.76319E+01
 -1        20-6.11841E+01 6.11841E+01 8.43769E-15
 -3
    1PSTEP                       680         136           1          
  100CL  236 248345.8484          20                     0  136           1
 -4  ERROR       1    1
 -5  STR(%)      1    1    0    0
 -1         1 3.80771E-14
 -1         2 3.80771E-14
 -1         3 3.80771E-14
 -1         4 3.80771E-14
 -1         5 3.80771E-14
 -1         6 3.80771E-14
 -1         7 3.80771E-14
 -1         8 3.80771E-14
 -1         9 3.80771E-14
 -1        10 3.80771E-14
 -1        11 3.80771E-14
 -1        12 3.80771E-14
 -1        13 3.80771E-14
 -1        14 3.80771E-14
 -1        15 3.80771E-14
 -1        16 3.80771E-14
 -1        17 3.80771E-14
 -1        18 3.80771E-14
 -1        19 3.80771E-14
 -1        20 3.80771E-14
 -3
    1PSTEP                       681         137           1          
  100CL  237 251597.5859          20                     0  137           1
 -4  DISP        4    1
 -5  D1          1    2    1    0
 -5  D2          1    2    2    0
 -5  D3          1    2    3    0
 -5  ALL         1    2    0    0    1ALL
 -1         1 0.00000E+00 0.00000E+00 0.00000E+00
 -1         2 0.00000E+00 0.00000E+00 0.00000E+00
 -1         3 0.00000E+00 0.00000E+00 2.00000E-03
 -1         4 0.00000E+00 0.00000E+00 2.00000E-03
 -1         5 0.00000E+00 0.00000E+00 0.00000E+00
 -1         6 0.00000E+00 0.00000E+00 0.00000E+00
 -1         7 0.00000E+00 0.00000E+00 2.00000E-03
 -1         8 0.00000E+00 0.00000E+00 2.00000E-03
 -1         9 0.00000E+00 0.00000E+00 0.00000E+00
 -1        10 0.00000E+00 0.00000E+00 1.00000E-03
 -1        11 0.00000E+00 0.00000E+00 2.00000E-03
 -1        12 0.00000E+00 0.00000E+00 1.00000E-03
 -1        13 0.00000E+00 0.00000E+00 0.00000E+00
 -1        14 0.00000E+00 0.00000E+00 0.00000E+00
 -1        15 0.00000E+00 0.00000E+00 2.00000E-03
 -1        16 0.00000E+00 0.00000E+00 2.00000E-03
 -1        17 0.00000E+00 0.00000E+00 0.00000E+00
 -1        18 0.00000E+00 0.00000E+00 1.00000E-03
 -1        19 0.00000E+00 0.00000E+00 2.00000E-03
 -1        20 0.00000E+00 0.00000E+00 1.00000E-03
 -3
    1PSTEP                       682         137           1          
  100CL  237 251597.5859          20                     0  137           1
 -4  STRESS      6    1
 -5  SXX         1    4    1    1
 -5  SYY         1    4    2    2
 -5  SZZ         1    4    3    3
 -5  SXY         1    4    1    2
 -5  SYZ         1    4    2    3
 -5  SZX         1    4    3    1
 -1         1 1.83757E+02 1.83757E+02 2.32462E+02 0.00000E+00 1.00469E-14 1.75117E-14
 -1         2 1.83757E+02 1.83757E+02 2.32462E+02 0.00000E+00-1.58015E-14-1.96944E-14
 -1         3 1.83757E+02 1.83757E+02 2.32462E+02 0.00000E+00-2.45759E-15-2.91876E-14
 -1         4 1.83757E+02 1.83757E+02 2.32462E+02 0.00000E+00-5.62230E-15 4.28946E-14
 -1         5 1.83757E+02 1.83757E+02 2.32462E+02 0.00000E+00 7.21248E-15-6.16688E-15
 -1         6 1.83757E+02 1.83757E+02 2.32462E+02 0.00000E+00-5.20813E-15 2.11098E-16
 -1         7 1.83757E+02 1.83757E+02 2.32462E+02 0.00000E+00 4.70577E-14 3.44135E-14
 -1         8 1.83757E+02 1.83757E+02 2.32462E+02 0.00000E+00-7.14758E-17-9.16923E-15
 -1         9 1.83774E+02 1.83774E+02 2.32483E+02 0.00000E+00-1.01991E-14-4.98254E-15
 -1        10 1.83774E+02 1.83774E+02 2.32483E+02 0.00000E+00 1.07254E-14 9.38209E-15
 -1        11 1.83774E+02 1.83774E+02 2.32483E+02 0.00000E+00 6.20030E-15 5.44941E-15
 -1        12 1.83774E+02 1.83774E+02 2.32483E+02 0.00000E+00 5.89535E-15 4.18354E-15
 -1        13 1.83774E+02 1.83774E+02 2.32483E+02 0.00000E+00-4.19133E-15-6.17091E-16
 -1        14 1.83774E+02 1.83774E+02 2.32483E+02 0.00000E+00 9.98877E-15 2.17751E-15
 -1        15 1.83774E+02 1.83774E+02 2.32483E+02 0.00000E+00-2.83368E-14 6.07055E-15
 -1        16 1.83774E+02 1.83774E+02 2.32483E+02 0.00000E+00 1.08410E-14 1.01795E-14
 -1        17 1.83774E+02 1.83774E+02 2.32483E+02 0.00000E+00-1.18532E-15 5.54058E-15
 -1        18 1.83774E+02 1.83774E+02 2.32483E+02 0.00000E+00 1.48432E-14-1.91213E-14
 -1        19 1.83774E+02 1.83774E+02 2.32483E+02 0.00000E+00 1.27389E-14-2.73030E-15
 -1        20 1.83774E+02 1.83774E+02 2.32483E+02 0.00000E+00 5.61229E-15 1.08850E-14
 -3
    1PSTEP                       683         137           1          
  100CL  237 251597.5859          20                     0  137           1
 -4  TOSTRAIN    6    1
 -5  EXX         1    4    1    1
 -5  EYY         1    4    2    2
 -5  EZZ         1    4    3    3
 -5  EXY         1    4    1    2
 -5  EYZ         1    4    2    3
 -5  EZX         1    4    3    1
 -1         1 0.00000E+00 0.00000E+00 1.99992E-03 0.00000E+00 4.12546E-19 7.19066E-19
 -1         2 0.00000E+00 0.00000E+00 1.99992E-03 0.00000E+00-6.48839E-19-8.08690E-19
 -1         3 0.00000E+00 0.00000E+00 1.99992E-03 0.00000E+00-1.00914E-19-1.19850E-18
 -1         4 0.00000E+00 0.00000E+00 1.99992E-03 0.00000E+00-2.30863E-19 1.76134E-18
 -1         5 0.00000E+00 0.00000E+00 1.99992E-03 0.00000E+00 2.96159E-19-2.53224E-19
 -1         6 0.00000E+00 0.00000E+00 1.99992E-03 0.00000E+00-2.13856E-19 8.66809E-21
 -1         7 0.00000E+00 0.00000E+00 1.99992E-03 0.00000E+00 1.93228E-18 1.41309E-18
 -1         8 0.00000E+00 0.00000E+00 1.99992E-03 0.00000E+00-2.93494E-21-3.76507E-19
 -1         9 0.00000E+00 0.00000E+00 2.00010E-03 0.00000E+00-4.18795E-19-2.04593E-19
 -1        10 0.00000E+00 0.00000E+00 2.00010E-03 0.00000E+00 4.40404E-19 3.85247E-19
 -1        11 0.00000E+00 0.00000E+00 2.00010E-03 0.00000E+00 2.54597E-19 2.23763E-19
 -1        12 0.00000E+00 0.00000E+00 2.00010E-03 0.00000E+00 2.42075E-19 1.71784E-19
 -1        13 0.00000E+00 0.00000E+00 2.00010E-03 0.00000E+00-1.72104E-19-2.53389E-20
 -1        14 0.00000E+00 0.00000E+00 2.00010E-03 0.00000E+00 4.10158E-19 8.94127E-20
 -1        15 0.00000E+00 0.00000E+00 2.00010E-03 0.00000E+00-1.16356E-18 2.49269E-19
 -1        16 0.00000E+00 0.00000E+00 2.00010E-03 0.00000E+00 4.45153E-19 4.17991E-19
 -1        17 0.00000E+00 0.00000E+00 2.00010E-03 0.00000E+00-4.86716E-20 2.27507E-19
 -1        18 0.00000E+00 0.00000E+00 2.00010E-03 0.00000E+00 6.09490E-19-7.85158E-19
 -1        19 0.00000E+00 0.00000E+00 2.00010E-03 0.00000E+00 5.23083E-19-1.12112E-19
 -1        20 0.00000E+00 0.00000E+00 2.00010E-03 0.00000E+00 2.30452E-19 4.46960E-19
 -3
    1PSTEP                       684         137           1          
  100CL  237 251597.5859          20                     0  137           1
 -4  FORC        4    1
 -5  F1          1    2    1    0
 -5  F2          1    2    2    0
 -5  F3          1    2    3    0
 -5  ALL         1    2    0    0    1ALL
 -1         1-1.53137E+01-1.53137E+01 1.93726E+01
 -1         2-1.53137E+01 1.53137E+01 1.93726E+01
 -1         3-1.53137E+01 1.53137E+01-1.93726E+01
 -1         4-1.53137E+01-1.53137E+01-1.93726E+01
 -1         5 1.53137E+01-1.53137E+01 1.93726E+01
 -1         6 1.53137E+01 1.53137E+01 1.93726E+01
 -1         7 1.53137E+01 1.53137E+01-1.93726E+01
 -1         8 1.53137E+01-1.53137E+01-1.93726E+01
 -1         9 6.12548E+01-8.23223E-15-7.74904E+01
 -1        10 6.12548E+01-6.12548E+01 1.26565E-14
 -1        11 6.12548E+01 3.79134E-15 7.74904E+01
 -1        12 6.12548E+01 6.12548E+01 1.73750E-14
 -1        13 7.01068E-15 6.12548E+01-7.74904E+01
 -1        14 1.38984E-14-6.12548E+01-7.74904E+01
 -1        15-1.58968E-14-6.12548E+01 7.74904E+01
 -1        16-1.17569E-14 6.12548E+01 7.74904E+01
 -1        17-6.12548E+01-3.52603E-16-7.74904E+01
 -1        18-6.12548E+01-6.12548E+01 0.00000E+00
 -1        19-6.12548E+01 1.90692E-15 7.74904E+01
 -1        20-6.12548E+01 6.12548E+01 5.32907E-15
 -3
    1PSTEP                       685         137           1          
  100CL  237 251597.5859          20                     0  137           1
 -4  ERROR       1    1
 -5  STR(%)      1    1    0    0
 -1         1 3.18931E-14
 -1         2 3.18931E-14
 -1         3 3.18931E-14
 -1         4 3.18931E-14
 -1         5 3.18931E-14
 -1         6 3.18931E-14
 -1         7 3.18931E-14
 -1         8 3.18931E-14
 -1         9 3.18931E-14
 -1        10 3.18931E-14
 -1        11 3.18931E-14
 -1        12 3.18931E-14
 -1        13 3.18931E-14
 -1        14 3.18931E-14
 -1        15 3.18931E-14
 -1        16 3.18931E-14
 -1        17 3.18931E-14
 -1        18 3.18931E-14
 -1        19 3.18931E-14
 -1        20 3.18931E-14
 -3
    1PSTEP                       686         138           1          
  100CL  238 253855.6248          20                     0  138           1
 -4  DISP        4    1
 -5  D1          1    2    1    0
 -5  D2          1    2    2    0
 -5  D3          1    2    3    0
 -5  ALL         1    2    0    0    1ALL
 -1         1 0.00000E+00 0.00000E+00 0.00000E+00
 -1         2 0.00000E+00 0.00000E+00 0.00000E+00
 -1         3 0.00000E+00 0.00000E+00 2.00000E-03
 -1         4 0.00000E+00 0.00000E+00 2.00000E-03
 -1         5 0.00000E+00 0.00000E+00 0.00000E+00
 -1         6 0.00000E+00 0.00000E+00 0.00000E+00
 -1         7 0.00000E+00 0.00000E+00 2.00000E-03
 -1         8 0.00000E+00 0.00000E+00 2.00000E-03
 -1         9 0.00000E+00 0.00000E+00 0.00000E+00
 -1        10 0.00000E+00 0.00000E+00 1.00000E-03
 -1        11 0.00000E+00 0.00000E+00 2.00000E-03
 -1        12 0.00000E+00 0.00000E+00 1.00000E-03
 -1        13 0.00000E+00 0.00000E+00 0.00000E+00
 -1        14 0.00000E+00 0.00000E+00 0.00000E+00
 -1        15 0.00000E+00 0.00000E+00 2.00000E-03
 -1        16 0.00000E+00 0.00000E+00 2.00000E-03
 -1        17 0.00000E+00 0.00000E+00 0.00000E+00
 -1        18 0.00000E+00 0.00000E+00 1.00000E-03
 -1        19 0.00000E+00 0.00000E+00 2.00000E-03
 -1        20 0.00000E+00 0.00000E+00 1.00000E-03
 -3
    1PSTEP                       687         138           1          
  100CL  238 253855.6248          20                     0  138           1
 -4  STRESS      6    1
 -5  SXX         1    4    1    1
 -5  SYY         1    4    2    2
 -5  SZZ         1    4    3    3
 -5  SXY         1    4    1    2
 -5  SYZ         1    4    2    3
 -5  SZX         1    4    3    1
 -1         1 1.83903E+02 1.83903E+02 2.32170E+02 0.00000E+00 9.95655E-15 1.73542E-14
 -1         2 1.83903E+02 1.83903E+02 2.32170E+02 0.00000E+00-1.56593E-14-1.95172E-14
 -1         3 1.83903E+02 1.83903E+02 2.32170E+02 0.00000E+00-2.43549E-15-2.89251E-14
 -1         4 1.83903E+02 1.83903E+02 2.32170E+02 0.00000E+00-5.57173E-15 4.25088E-14
 -1         5 1.83903E+02 1.83903E+02 2.32170E+02 0.00000E+00 7.14761E-15-6.11141E-15
 -1         6 1.83903E+02 1.83903E+02 2.32170E+02 0.00000E+00-5.16129E-15 2.09199E-16
 -1         7 1.83903E+02 1.83903E+02 2.32170E+02 0.00000E+00 4.66345E-14 3.41040E-14
 -1         8 1.83903E+02 1.83903E+02 2.32170E+02 0.00000E+00-7.08329E-17-9.08676E-15
 -1         9 1.83920E+02 1.83920E+02 2.32191E+02 0.00000E+00-1.01074E-14-4.93773E-15
 -1        10 1.83920E+02 1.83920E+02 2.32191E+02 0.00000E+00 1.06289E-14 9.29770E-15
 -1        11 1.83920E+02 1.83920E+02 2.32191E+02 0.00000E+00 6.14453E-15 5.40039E-15
 -1        12 1.83920E+02 1.83920E+02 2.32191E+02 0.00000E+00 5.84233E-15 4.14591E-15
 -1        13 1.83920E+02 1.83920E+02 2.32191E+02 0.00000E+00-4.15363E-15-6.11540E-16
 -1        14 1.83920E+02 1.83920E+02 2.32191E+02 0.00000E+00 9.89893E-15 2.15792E-15
 -1        15 1.83920E+02 1.83920E+02 2.32191E+02 0.00000E+00-2.80819E-14 6.01595E-15
 -1        16 1.83920E+02 1.83920E+02 2.32191E+02 0.00000E+00 1.07435E-14 1.00880E-14
 -1        17 1.83920E+02 1.83920E+02 2.32191E+02 0.00000E+00-1.17466E-15 5.49074E-15
 -1        18 1.83920E+02 1.83920E+02 2.32191E+02 0.00000E+00 1.47097E-14-1.89493E-14
 -1        19 1.83920E+02 1.83920E+02 2.32191E+02 0.00000E+00 1.26243E-14-2.70575E-15
 -1        20 1.83920E+02 1.83920E+02 2.32191E+02 0.00000E+00 5.56181E-15 1.07871E-14
 -3
    1PSTEP                       688         138           1          
  100CL  238 253855.6248          20                     0  138           1
 -4  TOSTRAIN    6    1
 -5  EXX         1    4    1    1
 -5  EYY         1    4    2    2
 -5  EZZ         1    4    3    3
 -5  EXY         1    4    1    2
 -5  EYZ         1    4    2    3
 -5  EZX         1    4    3    1
 -1         1 0.00000E+00 0.00000E+00 1.99992E-03 0.00000E+00 4.12546E-19 7.19066E-19
 -1         2 0.00000E+00 0.00000E+00 1.99992E-03 0.00000E+00-6.48839E-19-8.08690E-19
 -1         3 0.00000E+00 0.00000E+00 1.99992E-03 0.00000E+00-1.00914E-19-1.19850E-18
 -1         4 0.00000E+00 0.00000E+00 1.99992E-03 0.00000E+00-2.30863E-19 1.76134E-18
 -1         5 0.00000E+00 0.00000E+00 1.99992E-03 0.00000E+00 2.96159E-19-2.53224E-19
 -1         6 0.00000E+00 0.00000E+00 1.99992E-03 0.00000E+00-2.13856E-19 8.66809E-21
 -1         7 0.00000E+00 0.00000E+00 1.99992E-03 0.00000E+00 1.93228E-18 1.41309E-18
 -1         8 0.00000E+00 0.00000E+00 1.99992E-03 0.00000E+00-2.93494E-21-3.76507E-19
 -1         9 0.00000E+00 0.00000E+00 2.00010E-03 0.00000E+00-4.18795E-19-2.04593E-19
 -1        10 0.00000E+00 0.00000E+00 2.00010E-03 0.00000E+00 4.40404E-19 3.85247E-19
 -1        11 0.00000E+00 0.00000E+00 2.00010E-03 0.00000E+00 2.54597E-19 2.23763E-19
 -1        12 0.00000E+00 0.00000E+00 2.00010E-03 0.00000E+00 2.42075E-19 1.71784E-19
 -1        13 0.00000E+00 0.00000E+00 2.00010E-03 0.00000E+00-1.72104E-19-2.53389E-20
 -1        14 0.00000E+00 0.00000E+00 2.00010E-03 0.00000E+00 4.10158E-19 8.94127E-20
 -1        15 0.00000E+00 0.00000E+00 2.00010E-03 0.00000E+00-1.16356E-18 2.49269E-19
 -1        16 0.00000E+00 0.00000E+00 2.00010E-03 0.00000E+00 4.45153E-19 4.17991E-19
 -1        17 0.00000E+00 0.00000E+00 2.00010E-03 0.00000E+00-4.86716E-20 2.27507E-19
 -1        18 0.00000E+00 0.00000E+00 2.00010E-03 0.00000E+00 6.09490E-19-7.85158E-19
 -1        19 0.00000E+00 0.00000E+00 2.00010E-03 0.00000E+00 5.23083E-19-1.12112E-19
 -1        20 0.00000E+00 0.00000E+00 2.00010E-03 0.00000E+00 2.30452E-19 4.46960E-19
 -3
    1PSTEP                       689         138           1          
  100CL  238 253855.6248          20                     0  138           1
 -4  FORC        4    1
 -5  F1          1    2    1    0
 -5  F2          1    2    2    0
 -5  F3          1    2    3    0
 -5  ALL         1    2    0    0    1ALL
 -1         1-1.53259E+01-1.53259E+01 1.93483E+01
 -1         2-1.53259E+01 1.53259E+01 1.93483E+01
 -1         3-1.53259E+01 1.53259E+01-1.93483E+01
 -1         4-1.53259E+01-1.53259E+01-1.93483E+01
 -1         5 1.53259E+01-1.53259E+01 1.93483E+01
 -1         6 1.53259E+01 1.53259E+01 1.93483E+01
 -1         7 1.53259E+01 1.53259E+01-1.93483E+01
 -1         8 1.53259E+01-1.53259E+01-1.93483E+01
 -1         9 6.13035E+01-6.20593E-15-7.73931E+01
 -1        10 6.13035E+01-6.13035E+01 1.06581E-14
 -1        11 6.13035E+01 7.56595E-15 7.73931E+01
 -1        12 6.13035E+01 6.13035E+01 2.34257E-14
 -1        13-1.00589E-14 6.13035E+01-7.73931E+01
 -1        14 7.23790E-15-6.13035E+01-7.73931E+01
 -1        15 1.86593E-15-6.13035E+01 7.73931E+01
 -1        16-9.31450E-15 6.13035E+01 7.73931E+01
 -1        17-6.13035E+01 1.64697E-15-7.73931E+01
 -1        18-6.13035E+01-6.13035E+01 0.00000E+00
 -1        19-6.13035E+01 7.23481E-15 7.73931E+01
 -1        20-6.13035E+01 6.13035E+01 6.43929E-15
 -3
    1PSTEP                       690         138           1          
  100CL  238 253855.6248          20                     0  138           1
 -4  ERROR       1    1
 -5  STR(%)      1    1    0    0
 -1         1 2.81764E-14
 -1         2 2.81764E-14
 -1         3 2.81764E-14
 -1         4 2.81764E-14
 -1         5 2.81764E-14
 -1         6 2.81764E-14
 -1         7 2.81764E-14
 -1         8 2.81764E-14
 -1         9 2.81764E-14
 -1        10 2.81764E-14
 -1        11 2.81764E-14
 -1        12 2.81764E-14
 -1        13 2.81764E-14
 -1        14 2.81764E-14
 -1        15 2.81764E-14
 -1        16 2.81764E-14
 -1        17 2.81764E-14
 -1        18 2.81764E-14
 -1        19 2.81764E-14
 -1        20 2.81764E-14
 -3
    1PSTEP                       691         139           1          
  100CL  239 256113.6638          20                     0  139           1
 -4  DISP        4    1
 -5  D1          1    2    1    0
 -5  D2          1    2    2    0
 -5  D3          1    2    3    0
 -5  ALL         1    2    0    0    1ALL
 -1         1 0.00000E+00 0.00000E+00 0.00000E+00
 -1         2 0.00000E+00 0.00000E+00 0.00000E+00
 -1         3 0.00000E+00 0.00000E+00 2.00000E-03
 -1         4 0.00000E+00 0.00000E+00 2.00000E-03
 -1         5 0.00000E+00 0.00000E+00 0.00000E+00
 -1         6 0.00000E+00 0.00000E+00 0.00000E+00
 -1         7 0.00000E+00 0.00000E+00 2.00000E-03
 -1         8 0.00000E+00 0.00000E+00 2.00000E-03
 -1         9 0.00000E+00 0.00000E+00 0.00000E+00
 -1        10 0.00000E+00 0.00000E+00 1.00000E-03
 -1        11 0.00000E+00 0.00000E+00 2.00000E-03
 -1        12 0.00000E+00 0.00000E+00 1.00000E-03
 -1        13 0.00000E+00 0.00000E+00 0.00000E+00
 -1        14 0.00000E+00 0.00000E+00 0.00000E+00
 -1        15 0.00000E+00 0.00000E+00 2.00000E-03
 -1        16 0.00000E+00 0.00000E+00 2.00000E-03
 -1        17 0.00000E+00 0.00000E+00 0.00000E+00
 -1        18 0.00000E+00 0.00000E+00 1.00000E-03
 -1        19 0.00000E+00 0.00000E+00 2.00000E-03
 -1        20 0.00000E+00 0.00000E+00 1.00000E-03
 -3
    1PSTEP                       692         139           1          
  100CL  239 256113.6638          20                     0  139           1
 -4  STRESS      6    1
 -5  SXX         1    4    1    1
 -5  SYY         1    4    2    2
 -5  SZZ         1    4    3    3
 -5  SXY         1    4    1    2
 -5  SYZ         1    4    2    3
 -5  SZX         1    4    3    1
 -1         1 1.84048E+02 1.84048E+02 2.31880E+02 0.00000E+00 9.86700E-15 1.71981E-14
 -1         2 1.84048E+02 1.84048E+02 2.31880E+02 0.00000E+00-1.55185E-14-1.93417E-14
 -1         3 1.84048E+02 1.84048E+02 2.31880E+02 0.00000E+00-2.41359E-15-2.86650E-14
 -1         4 1.84048E+02 1.84048E+02 2.31880E+02 0.00000E+00-5.52162E-15 4.21265E-14
 -1         5 1.84048E+02 1.84048E+02 2.31880E+02 0.00000E+00 7.08332E-15-6.05644E-15
 -1         6 1.84048E+02 1.84048E+02 2.31880E+02 0.00000E+00-5.11487E-15 2.07318E-16
 -1         7 1.84048E+02 1.84048E+02 2.31880E+02 0.00000E+00 4.62150E-14 3.37972E-14
 -1         8 1.84048E+02 1.84048E+02 2.31880E+02 0.00000E+00-7.01958E-17-9.00503E-15
 -1         9 1.84064E+02 1.84064E+02 2.31901E+02 0.00000E+00-1.00165E-14-4.89331E-15
 -1        10 1.84064E+02 1.84064E+02 2.31901E+02 0.00000E+00 1.05333E-14 9.21407E-15
 -1        11 1.84064E+02 1.84064E+02 2.31901E+02 0.00000E+00 6.08927E-15 5.35182E-15
 -1        12 1.84064E+02 1.84064E+02 2.31901E+02 0.00000E+00 5.78978E-15 4.10862E-15
 -1        13 1.84064E+02 1.84064E+02 2.31901E+02 0.00000E+00-4.11627E-15-6.06040E-16
 -1        14 1.84064E+02 1.84064E+02 2.31901E+02 0.00000E+00 9.80989E-15 2.13851E-15
 -1        15 1.84064E+02 1.84064E+02 2.31901E+02 0.00000E+00-2.78294E-14 5.96184E-15
 -1        16 1.84064E+02 1.84064E+02 2.31901E+02 0.00000E+00 1.06469E-14 9.99722E-15
 -1        17 1.84064E+02 1.84064E+02 2.31901E+02 0.00000E+00-1.16409E-15 5.44136E-15
 -1        18 1.84064E+02 1.84064E+02 2.31901E+02 0.00000E+00 1.45774E-14-1.87789E-14
 -1        19 1.84064E+02 1.84064E+02 2.31901E+02 0.00000E+00 1.25107E-14-2.68141E-15
 -1        20 1.84064E+02 1.84064E+02 2.31901E+02 0.00000E+00 5.51178E-15 1.06901E-14
 -3
    1PSTEP                       693         139           1          
  100CL  239 256113.6638          20                     0  139           1
 -4  TOSTRAIN    6    1
 -5  EXX         1    4    1    1
 -5  EYY         1    4    2    2
 -5  EZZ         1    4    3    3
 -5  EXY         1    4    1    2
 -5  EYZ         1    4    2    3
 -5  EZX         1    4    3    1
 -1         1 0.00000E+00 0.00000E+00 1.99992E-03 0.00000E+00 4.12546E-19 7.19066E-19
 -1         2 0.00000E+00 0.00000E+00 1.99992E-03 0.00000E+00-6.48839E-19-8.08690E-19
 -1         3 0.00000E+00 0.00000E+00 1.99992E-03 0.00000E+00-1.00914E-19-1.19850E-18
 -1         4 0.00000E+00 0.00000E+00 1.99992E-03 0.00000E+00-2.30863E-19 1.76134E-18
 -1         5 0.00000E+00 0.00000E+00 1.99992E-03 0.00000E+00 2.96159E-19-2.53224E-19
 -1         6 0.00000E+00 0.00000E+00 1.99992E-03 0.00000E+00-2.13856E-19 8.66809E-21
 -1         7 0.00000E+00 0.00000E+00 1.99992E-03 0.00000E+00 1.93228E-18 1.41309E-18
 -1         8 0.00000E+00 0.00000E+00 1.99992E-03 0.00000E+00-2.93494E-21-3.76507E-19
 -1         9 0.00000E+00 0.00000E+00 2.00010E-03 0.00000E+00-4.18795E-19-2.04593E-19
 -1        10 0.00000E+00 0.00000E+00 2.00010E-03 0.00000E+00 4.40404E-19 3.85247E-19
 -1        11 0.00000E+00 0.00000E+00 2.00010E-03 0.00000E+00 2.54597E-19 2.23763E-19
 -1        12 0.00000E+00 0.00000E+00 2.00010E-03 0.00000E+00 2.42075E-19 1.71784E-19
 -1        13 0.00000E+00 0.00000E+00 2.00010E-03 0.00000E+00-1.72104E-19-2.53389E-20
 -1        14 0.00000E+00 0.00000E+00 2.00010E-03 0.00000E+00 4.10158E-19 8.94127E-20
 -1        15 0.00000E+00 0.00000E+00 2.00010E-03 0.00000E+00-1.16356E-18 2.49269E-19
 -1        16 0.00000E+00 0.00000E+00 2.00010E-03 0.00000E+00 4.45153E-19 4.17991E-19
 -1        17 0.00000E+00 0.00000E+00 2.00010E-03 0.00000E+00-4.86716E-20 2.27507E-19
 -1        18 0.00000E+00 0.00000E+00 2.00010E-03 0.00000E+00 6.09490E-19-7.85158E-19
 -1        19 0.00000E+00 0.00000E+00 2.00010E-03 0.00000E+00 5.23083E-19-1.12112E-19
 -1        20 0.00000E+00 0.00000E+00 2.00010E-03 0.00000E+00 2.30452E-19 4.46960E-19
 -3
    1PSTEP                       694         139           1          
  100CL  239 256113.6638          20                     0  139           1
 -4  FORC        4    1
 -5  F1          1    2    1    0
 -5  F2          1    2    2    0
 -5  F3          1    2    3    0
 -5  ALL         1    2    0    0    1ALL
 -1         1-1.53379E+01-1.53379E+01 1.93241E+01
 -1         2-1.53379E+01 1.53379E+01 1.93241E+01
 -1         3-1.53379E+01 1.53379E+01-1.93241E+01
 -1         4-1.53379E+01-1.53379E+01-1.93241E+01
 -1         5 1.53379E+01-1.53379E+01 1.93241E+01
 -1         6 1.53379E+01 1.53379E+01 1.93241E+01
 -1         7 1.53379E+01 1.53379E+01-1.93241E+01
 -1         8 1.53379E+01-1.53379E+01-1.93241E+01
 -1         9 6.13517E+01-7.78785E-15-7.72966E+01
 -1        10 6.13517E+01-6.13517E+01 5.99520E-15
 -1        11 6.13517E+01 3.79104E-15 7.72966E+01
 -1        12 6.13517E+01 6.13517E+01 1.47105E-14
 -1        13-5.00728E-15 6.13517E+01-7.72966E+01
 -1        14 7.90484E-15-6.13517E+01-7.72966E+01
 -1        15 1.07469E-14-6.13517E+01 7.72966E+01
 -1        16-1.02028E-14 6.13517E+01 7.72966E+01
 -1        17-6.13517E+01 1.42609E-15-7.72966E+01
 -1        18-6.13517E+01-6.13517E+01 8.88178E-15
 -1        19-6.13517E+01 3.68093E-15 7.72966E+01
 -1        20-6.13517E+01 6.13517E+01 4.88498E-15
 -3
    1PSTEP                       695         139           1          
  100CL  239 256113.6638          20                     0  139           1
 -4  ERROR       1    1
 -5  STR(%)      1    1    0    0
 -1         1 1.88077E-14
 -1         2 1.88077E-14
 -1         3 1.88077E-14
 -1         4 1.88077E-14
 -1         5 1.88077E-14
 -1         6 1.88077E-14
 -1         7 1.88077E-14
 -1         8 1.88077E-14
 -1         9 1.88077E-14
 -1        10 1.88077E-14
 -1        11 1.88077E-14
 -1        12 1.88077E-14
 -1        13 1.88077E-14
 -1        14 1.88077E-14
 -1        15 1.88077E-14
 -1        16 1.88077E-14
 -1        17 1.88077E-14
 -1        18 1.88077E-14
 -1        19 1.88077E-14
 -1        20 1.88077E-14
 -3
    1PSTEP                       696         140           1          
  100CL  240 259500.7223          20                     0  140           1
 -4  DISP        4    1
 -5  D1          1    2    1    0
 -5  D2          1    2    2    0
 -5  D3          1    2    3    0
 -5  ALL         1    2    0    0    1ALL
 -1         1 0.00000E+00 0.00000E+00 0.00000E+00
 -1         2 0.00000E+00 0.00000E+00 0.00000E+00
 -1         3 0.00000E+00 0.00000E+00 2.00000E-03
 -1         4 0.00000E+00 0.00000E+00 2.00000E-03
 -1         5 0.00000E+00 0.00000E+00 0.00000E+00
 -1         6 0.00000E+00 0.00000E+00 0.00000E+00
 -1         7 0.00000E+00 0.00000E+00 2.00000E-03
 -1         8 0.00000E+00 0.00000E+00 2.00000E-03
 -1         9 0.00000E+00 0.00000E+00 0.00000E+00
 -1        10 0.00000E+00 0.00000E+00 1.00000E-03
 -1        11 0.00000E+00 0.00000E+00 2.00000E-03
 -1        12 0.00000E+00 0.00000E+00 1.00000E-03
 -1        13 0.00000E+00 0.00000E+00 0.00000E+00
 -1        14 0.00000E+00 0.00000E+00 0.00000E+00
 -1        15 0.00000E+00 0.00000E+00 2.00000E-03
 -1        16 0.00000E+00 0.00000E+00 2.00000E-03
 -1        17 0.00000E+00 0.00000E+00 0.00000E+00
 -1        18 0.00000E+00 0.00000E+00 1.00000E-03
 -1        19 0.00000E+00 0.00000E+00 2.00000E-03
 -1        20 0.00000E+00 0.00000E+00 1.00000E-03
 -3
    1PSTEP                       697         140           1          
  100CL  240 259500.7223          20                     0  140           1
 -4  STRESS      6    1
 -5  SXX         1    4    1    1
 -5  SYY         1    4    2    2
 -5  SZZ         1    4    3    3
 -5  SXY         1    4    1    2
 -5  SYZ         1    4    2    3
 -5  SZX         1    4    3    1
 -1         1 1.84262E+02 1.84262E+02 2.31452E+02 0.00000E+00 9.73447E-15 1.69671E-14
 -1         2 1.84262E+02 1.84262E+02 2.31452E+02 0.00000E+00-1.53101E-14-1.90819E-14
 -1         3 1.84262E+02 1.84262E+02 2.31452E+02 0.00000E+00-2.38117E-15-2.82800E-14
 -1         4 1.84262E+02 1.84262E+02 2.31452E+02 0.00000E+00-5.44746E-15 4.15607E-14
 -1         5 1.84262E+02 1.84262E+02 2.31452E+02 0.00000E+00 6.98818E-15-5.97510E-15
 -1         6 1.84262E+02 1.84262E+02 2.31452E+02 0.00000E+00-5.04617E-15 2.04533E-16
 -1         7 1.84262E+02 1.84262E+02 2.31452E+02 0.00000E+00 4.55943E-14 3.33433E-14
 -1         8 1.84262E+02 1.84262E+02 2.31452E+02 0.00000E+00-6.92530E-17-8.88408E-15
 -1         9 1.84278E+02 1.84278E+02 2.31473E+02 0.00000E+00-9.88193E-15-4.82759E-15
 -1        10 1.84278E+02 1.84278E+02 2.31473E+02 0.00000E+00 1.03918E-14 9.09032E-15
 -1        11 1.84278E+02 1.84278E+02 2.31473E+02 0.00000E+00 6.00748E-15 5.27994E-15
 -1        12 1.84278E+02 1.84278E+02 2.31473E+02 0.00000E+00 5.71201E-15 4.05344E-15
 -1        13 1.84278E+02 1.84278E+02 2.31473E+02 0.00000E+00-4.06098E-15-5.97900E-16
 -1        14 1.84278E+02 1.84278E+02 2.31473E+02 0.00000E+00 9.67814E-15 2.10979E-15
 -1        15 1.84278E+02 1.84278E+02 2.31473E+02 0.00000E+00-2.74556E-14 5.88177E-15
 -1        16 1.84278E+02 1.84278E+02 2.31473E+02 0.00000E+00 1.05039E-14 9.86295E-15
 -1        17 1.84278E+02 1.84278E+02 2.31473E+02 0.00000E+00-1.14846E-15 5.36827E-15
 -1        18 1.84278E+02 1.84278E+02 2.31473E+02 0.00000E+00 1.43816E-14-1.85267E-14
 -1        19 1.84278E+02 1.84278E+02 2.31473E+02 0.00000E+00 1.23427E-14-2.64540E-15
 -1        20 1.84278E+02 1.84278E+02 2.31473E+02 0.00000E+00 5.43776E-15 1.05465E-14
 -3
    1PSTEP                       698         140           1          
  100CL  240 259500.7223          20                     0  140           1
 -4  TOSTRAIN    6    1
 -5  EXX         1    4    1    1
 -5  EYY         1    4    2    2
 -5  EZZ         1    4    3    3
 -5  EXY         1    4    1    2
 -5  EYZ         1    4    2    3
 -5  EZX         1    4    3    1
 -1         1 0.00000E+00 0.00000E+00 1.99992E-03 0.00000E+00 4.12546E-19 7.19066E-19
 -1         2 0.00000E+00 0.00000E+00 1.99992E-03 0.00000E+00-6.48839E-19-8.08690E-19
 -1         3 0.00000E+00 0.00000E+00 1.99992E-03 0.00000E+00-1.00914E-19-1.19850E-18
 -1         4 0.00000E+00 0.00000E+00 1.99992E-03 0.00000E+00-2.30863E-19 1.76134E-18
 -1         5 0.00000E+00 0.00000E+00 1.99992E-03 0.00000E+00 2.96159E-19-2.53224E-19
 -1         6 0.00000E+00 0.00000E+00 1.99992E-03 0.00000E+00-2.13856E-19 8.66809E-21
 -1         7 0.00000E+00 0.00000E+00 1.99992E-03 0.00000E+00 1.93228E-18 1.41309E-18
 -1         8 0.00000E+00 0.00000E+00 1.99992E-03 0.00000E+00-2.93494E-21-3.76507E-19
 -1         9 0.00000E+00 0.00000E+00 2.00010E-03 0.00000E+00-4.18795E-19-2.04593E-19
 -1        10 0.00000E+00 0.00000E+00 2.00010E-03 0.00000E+00 4.40404E-19 3.85247E-19
 -1        11 0.00000E+00 0.00000E+00 2.00010E-03 0.00000E+00 2.54597E-19 2.23763E-19
 -1        12 0.00000E+00 0.00000E+00 2.00010E-03 0.00000E+00 2.42075E-19 1.71784E-19
 -1        13 0.00000E+00 0.00000E+00 2.00010E-03 0.00000E+00-1.72104E-19-2.53389E-20
 -1        14 0.00000E+00 0.00000E+00 2.00010E-03 0.00000E+00 4.10158E-19 8.94127E-20
 -1        15 0.00000E+00 0.00000E+00 2.00010E-03 0.00000E+00-1.16356E-18 2.49269E-19
 -1        16 0.00000E+00 0.00000E+00 2.00010E-03 0.00000E+00 4.45153E-19 4.17991E-19
 -1        17 0.00000E+00 0.00000E+00 2.00010E-03 0.00000E+00-4.86716E-20 2.27507E-19
 -1        18 0.00000E+00 0.00000E+00 2.00010E-03 0.00000E+00 6.09490E-19-7.85158E-19
 -1        19 0.00000E+00 0.00000E+00 2.00010E-03 0.00000E+00 5.23083E-19-1.12112E-19
 -1        20 0.00000E+00 0.00000E+00 2.00010E-03 0.00000E+00 2.30452E-19 4.46960E-19
 -3
    1PSTEP                       699         140           1          
  100CL  240 259500.7223          20                     0  140           1
 -4  FORC        4    1
 -5  F1          1    2    1    0
 -5  F2          1    2    2    0
 -5  F3          1    2    3    0
 -5  ALL         1    2    0    0    1ALL
 -1         1-1.53558E+01-1.53558E+01 1.92885E+01
 -1         2-1.53558E+01 1.53558E+01 1.92885E+01
 -1         3-1.53558E+01 1.53558E+01-1.92885E+01
 -1         4-1.53558E+01-1.53558E+01-1.92885E+01
 -1         5 1.53558E+01-1.53558E+01 1.92885E+01
 -1         6 1.53558E+01 1.53558E+01 1.92885E+01
 -1         7 1.53558E+01 1.53558E+01-1.92885E+01
 -1         8 1.53558E+01-1.53558E+01-1.92885E+01
 -1         9 6.14231E+01-4.67900E-15-7.71538E+01
 -1        10 6.14231E+01-6.14231E+01 8.65974E-15
 -1        11 6.14231E+01 2.01447E-15 7.71538E+01
 -1        12 6.14231E+01 6.14231E+01 1.97897E-14
 -1        13-1.98564E-14 6.14231E+01-7.71538E+01
 -1        14 8.12807E-15-6.14231E+01-7.71538E+01
 -1        15 7.19300E-15-6.14231E+01 7.71538E+01
 -1        16 7.33860E-15 6.14231E+01 7.71538E+01
 -1        17-6.14231E+01 4.98053E-15-7.71538E+01
 -1        18-6.14231E+01-6.14231E+01 5.32907E-15
 -1        19-6.14231E+01 1.90286E-15 7.71538E+01
 -1        20-6.14231E+01 6.14231E+01-3.10862E-15
 -3
    1PSTEP                       700         140           1          
  100CL  240 259500.7223          20                     0  140           1
 -4  ERROR       1    1
 -5  STR(%)      1    1    0    0
 -1         1 2.00987E-14
 -1         2 2.00987E-14
 -1         3 2.00987E-14
 -1         4 2.00987E-14
 -1         5 2.00987E-14
 -1         6 2.00987E-14
 -1         7 2.00987E-14
 -1         8 2.00987E-14
 -1         9 2.00987E-14
 -1        10 2.00987E-14
 -1        11 2.00987E-14
 -1        12 2.00987E-14
 -1        13 2.00987E-14
 -1        14 2.00987E-14
 -1        15 2.00987E-14
 -1        16 2.00987E-14
 -1        17 2.00987E-14
 -1        18 2.00987E-14
 -1        19 2.00987E-14
 -1        20 2.00987E-14
 -3
    1PSTEP                       701         141           1          
  100CL  241 261739.9171          20                     0  141           1
 -4  DISP        4    1
 -5  D1          1    2    1    0
 -5  D2          1    2    2    0
 -5  D3          1    2    3    0
 -5  ALL         1    2    0    0    1ALL
 -1         1 0.00000E+00 0.00000E+00 0.00000E+00
 -1         2 0.00000E+00 0.00000E+00 0.00000E+00
 -1         3 0.00000E+00 0.00000E+00 2.00000E-03
 -1         4 0.00000E+00 0.00000E+00 2.00000E-03
 -1         5 0.00000E+00 0.00000E+00 0.00000E+00
 -1         6 0.00000E+00 0.00000E+00 0.00000E+00
 -1         7 0.00000E+00 0.00000E+00 2.00000E-03
 -1         8 0.00000E+00 0.00000E+00 2.00000E-03
 -1         9 0.00000E+00 0.00000E+00 0.00000E+00
 -1        10 0.00000E+00 0.00000E+00 1.00000E-03
 -1        11 0.00000E+00 0.00000E+00 2.00000E-03
 -1        12 0.00000E+00 0.00000E+00 1.00000E-03
 -1        13 0.00000E+00 0.00000E+00 0.00000E+00
 -1        14 0.00000E+00 0.00000E+00 0.00000E+00
 -1        15 0.00000E+00 0.00000E+00 2.00000E-03
 -1        16 0.00000E+00 0.00000E+00 2.00000E-03
 -1        17 0.00000E+00 0.00000E+00 0.00000E+00
 -1        18 0.00000E+00 0.00000E+00 1.00000E-03
 -1        19 0.00000E+00 0.00000E+00 2.00000E-03
 -1        20 0.00000E+00 0.00000E+00 1.00000E-03
 -3
    1PSTEP                       702         141           1          
  100CL  241 261739.9171          20                     0  141           1
 -4  STRESS      6    1
 -5  SXX         1    4    1    1
 -5  SYY         1    4    2    2
 -5  SZZ         1    4    3    3
 -5  SXY         1    4    1    2
 -5  SYZ         1    4    2    3
 -5  SZX         1    4    3    1
 -1         1 1.84402E+02 1.84402E+02 2.31172E+02 0.00000E+00 9.64764E-15 1.68158E-14
 -1         2 1.84402E+02 1.84402E+02 2.31172E+02 0.00000E+00-1.51735E-14-1.89117E-14
 -1         3 1.84402E+02 1.84402E+02 2.31172E+02 0.00000E+00-2.35993E-15-2.80277E-14
 -1         4 1.84402E+02 1.84402E+02 2.31172E+02 0.00000E+00-5.39887E-15 4.11899E-14
 -1         5 1.84402E+02 1.84402E+02 2.31172E+02 0.00000E+00 6.92585E-15-5.92180E-15
 -1         6 1.84402E+02 1.84402E+02 2.31172E+02 0.00000E+00-5.00116E-15 2.02709E-16
 -1         7 1.84402E+02 1.84402E+02 2.31172E+02 0.00000E+00 4.51876E-14 3.30459E-14
 -1         8 1.84402E+02 1.84402E+02 2.31172E+02 0.00000E+00-6.86353E-17-8.80484E-15
 -1         9 1.84419E+02 1.84419E+02 2.31192E+02 0.00000E+00-9.79378E-15-4.78453E-15
 -1        10 1.84419E+02 1.84419E+02 2.31192E+02 0.00000E+00 1.02991E-14 9.00923E-15
 -1        11 1.84419E+02 1.84419E+02 2.31192E+02 0.00000E+00 5.95390E-15 5.23284E-15
 -1        12 1.84419E+02 1.84419E+02 2.31192E+02 0.00000E+00 5.66106E-15 4.01728E-15
 -1        13 1.84419E+02 1.84419E+02 2.31192E+02 0.00000E+00-4.02476E-15-5.92567E-16
 -1        14 1.84419E+02 1.84419E+02 2.31192E+02 0.00000E+00 9.59181E-15 2.09097E-15
 -1        15 1.84419E+02 1.84419E+02 2.31192E+02 0.00000E+00-2.72107E-14 5.82931E-15
 -1        16 1.84419E+02 1.84419E+02 2.31192E+02 0.00000E+00 1.04102E-14 9.77497E-15
 -1        17 1.84419E+02 1.84419E+02 2.31192E+02 0.00000E+00-1.13822E-15 5.32039E-15
 -1        18 1.84419E+02 1.84419E+02 2.31192E+02 0.00000E+00 1.42533E-14-1.83614E-14
 -1        19 1.84419E+02 1.84419E+02 2.31192E+02 0.00000E+00 1.22326E-14-2.62180E-15
 -1        20 1.84419E+02 1.84419E+02 2.31192E+02 0.00000E+00 5.38925E-15 1.04524E-14
 -3
    1PSTEP                       703         141           1          
  100CL  241 261739.9171          20                     0  141           1
 -4  TOSTRAIN    6    1
 -5  EXX         1    4    1    1
 -5  EYY         1    4    2    2
 -5  EZZ         1    4    3    3
 -5  EXY         1    4    1    2
 -5  EYZ         1    4    2    3
 -5  EZX         1    4    3    1
 -1         1 0.00000E+00 0.00000E+00 1.99992E-03 0.00000E+00 4.12546E-19 7.19066E-19
 -1         2 0.00000E+00 0.00000E+00 1.99992E-03 0.00000E+00-6.48839E-19-8.08690E-19
 -1         3 0.00000E+00 0.00000E+00 1.99992E-03 0.00000E+00-1.00914E-19-1.19850E-18
 -1         4 0.00000E+00 0.00000E+00 1.99992E-03 0.00000E+00-2.30863E-19 1.76134E-18
 -1         5 0.00000E+00 0.00000E+00 1.99992E-03 0.00000E+00 2.96159E-19-2.53224E-19
 -1         6 0.00000E+00 0.00000E+00 1.99992E-03 0.00000E+00-2.13856E-19 8.66809E-21
 -1         7 0.00000E+00 0.00000E+00 1.99992E-03 0.00000E+00 1.93228E-18 1.41309E-18
 -1         8 0.00000E+00 0.00000E+00 1.99992E-03 0.00000E+00-2.93494E-21-3.76507E-19
 -1         9 0.00000E+00 0.00000E+00 2.00010E-03 0.00000E+00-4.18795E-19-2.04593E-19
 -1        10 0.00000E+00 0.00000E+00 2.00010E-03 0.00000E+00 4.40404E-19 3.85247E-19
 -1        11 0.00000E+00 0.00000E+00 2.00010E-03 0.00000E+00 2.54597E-19 2.23763E-19
 -1        12 0.00000E+00 0.00000E+00 2.00010E-03 0.00000E+00 2.42075E-19 1.71784E-19
 -1        13 0.00000E+00 0.00000E+00 2.00010E-03 0.00000E+00-1.72104E-19-2.53389E-20
 -1        14 0.00000E+00 0.00000E+00 2.00010E-03 0.00000E+00 4.10158E-19 8.94127E-20
 -1        15 0.00000E+00 0.00000E+00 2.00010E-03 0.00000E+00-1.16356E-18 2.49269E-19
 -1        16 0.00000E+00 0.00000E+00 2.00010E-03 0.00000E+00 4.45153E-19 4.17991E-19
 -1        17 0.00000E+00 0.00000E+00 2.00010E-03 0.00000E+00-4.86716E-20 2.27507E-19
 -1        18 0.00000E+00 0.00000E+00 2.00010E-03 0.00000E+00 6.09490E-19-7.85158E-19
 -1        19 0.00000E+00 0.00000E+00 2.00010E-03 0.00000E+00 5.23083E-19-1.12112E-19
 -1        20 0.00000E+00 0.00000E+00 2.00010E-03 0.00000E+00 2.30452E-19 4.46960E-19
 -3
    1PSTEP                       704         141           1          
  100CL  241 261739.9171          20                     0  141           1
 -4  FORC        4    1
 -5  F1          1    2    1    0
 -5  F2          1    2    2    0
 -5  F3          1    2    3    0
 -5  ALL         1    2    0    0    1ALL
 -1         1-1.53675E+01-1.53675E+01 1.92651E+01
 -1         2-1.53675E+01 1.53675E+01 1.92651E+01
 -1         3-1.53675E+01 1.53675E+01-1.92651E+01
 -1         4-1.53675E+01-1.53675E+01-1.92651E+01
 -1         5 1.53675E+01-1.53675E+01 1.92651E+01
 -1         6 1.53675E+01 1.53675E+01 1.92651E+01
 -1         7 1.53675E+01 1.53675E+01-1.92651E+01
 -1         8 1.53675E+01-1.53675E+01-1.92651E+01
 -1         9 6.14699E+01-6.20542E-15-7.70603E+01
 -1        10 6.14699E+01-6.14699E+01 5.99520E-15
 -1        11 6.14699E+01 2.23637E-15 7.70603E+01
 -1        12 6.14699E+01 6.14699E+01 1.64591E-14
 -1        13-1.06692E-14 6.14699E+01-7.70603E+01
 -1        14 7.68477E-15-6.14699E+01-7.70603E+01
 -1        15 5.41587E-15-6.14699E+01 7.70603E+01
 -1        16-6.20622E-15 6.14699E+01 7.70603E+01
 -1        17-6.14699E+01 3.20530E-15-7.70603E+01
 -1        18-6.14699E+01-6.14699E+01 1.77636E-15
 -1        19-6.14699E+01 1.25370E-16 7.70603E+01
 -1        20-6.14699E+01 6.14699E+01 2.22045E-15
 -3
    1PSTEP                       705         141           1          
  100CL  241 261739.9171          20                     0  141           1
 -4  ERROR       1    1
 -5  STR(%)      1    1    0    0
 -1         1 5.91115E-14
 -1         2 5.91115E-14
 -1         3 5.91115E-14
 -1         4 5.91115E-14
 -1         5 5.91115E-14
 -1         6 5.91115E-14
 -1         7 5.91115E-14
 -1         8 5.91115E-14
 -1         9 5.91115E-14
 -1        10 5.91115E-14
 -1        11 5.91115E-14
 -1        12 5.91115E-14
 -1        13 5.91115E-14
 -1        14 5.91115E-14
 -1        15 5.91115E-14
 -1        16 5.91115E-14
 -1        17 5.91115E-14
 -1        18 5.91115E-14
 -1        19 5.91115E-14
 -1        20 5.91115E-14
 -3
    1PSTEP                       706         142           1          
  100CL  242 263979.1120          20                     0  142           1
 -4  DISP        4    1
 -5  D1          1    2    1    0
 -5  D2          1    2    2    0
 -5  D3          1    2    3    0
 -5  ALL         1    2    0    0    1ALL
 -1         1 0.00000E+00 0.00000E+00 0.00000E+00
 -1         2 0.00000E+00 0.00000E+00 0.00000E+00
 -1         3 0.00000E+00 0.00000E+00 2.00000E-03
 -1         4 0.00000E+00 0.00000E+00 2.00000E-03
 -1         5 0.00000E+00 0.00000E+00 0.00000E+00
 -1         6 0.00000E+00 0.00000E+00 0.00000E+00
 -1         7 0.00000E+00 0.00000E+00 2.00000E-03
 -1         8 0.00000E+00 0.00000E+00 2.00000E-03
 -1         9 0.00000E+00 0.00000E+00 0.00000E+00
 -1        10 0.00000E+00 0.00000E+00 1.00000E-03
 -1        11 0.00000E+00 0.00000E+00 2.00000E-03
 -1        12 0.00000E+00 0.00000E+00 1.00000E-03
 -1        13 0.00000E+00 0.00000E+00 0.00000E+00
 -1        14 0.00000E+00 0.00000E+00 0.00000E+00
 -1        15 0.00000E+00 0.00000E+00 2.00000E-03
 -1        16 0.00000E+00 0.00000E+00 2.00000E-03
 -1        17 0.00000E+00 0.00000E+00 0.00000E+00
 -1        18 0.00000E+00 0.00000E+00 1.00000E-03
 -1        19 0.00000E+00 0.00000E+00 2.00000E-03
 -1        20 0.00000E+00 0.00000E+00 1.00000E-03
 -3
    1PSTEP                       707         142           1          
  100CL  242 263979.1120          20                     0  142           1
 -4  STRESS      6    1
 -5  SXX         1    4    1    1
 -5  SYY         1    4    2    2
 -5  SZZ         1    4    3    3
 -5  SXY         1    4    1    2
 -5  SYZ         1    4    2    3
 -5  SZX         1    4    3    1
 -1         1 1.84541E+02 1.84541E+02 2.30893E+02 0.00000E+00 9.56158E-15 1.66658E-14
 -1         2 1.84541E+02 1.84541E+02 2.30893E+02 0.00000E+00-1.50381E-14-1.87430E-14
 -1         3 1.84541E+02 1.84541E+02 2.30893E+02 0.00000E+00-2.33888E-15-2.77777E-14
 -1         4 1.84541E+02 1.84541E+02 2.30893E+02 0.00000E+00-5.35071E-15 4.08225E-14
 -1         5 1.84541E+02 1.84541E+02 2.30893E+02 0.00000E+00 6.86407E-15-5.86898E-15
 -1         6 1.84541E+02 1.84541E+02 2.30893E+02 0.00000E+00-4.95655E-15 2.00901E-16
 -1         7 1.84541E+02 1.84541E+02 2.30893E+02 0.00000E+00 4.47845E-14 3.27511E-14
 -1         8 1.84541E+02 1.84541E+02 2.30893E+02 0.00000E+00-6.80230E-17-8.72630E-15
 -1         9 1.84558E+02 1.84558E+02 2.30914E+02 0.00000E+00-9.70642E-15-4.74185E-15
 -1        10 1.84558E+02 1.84558E+02 2.30914E+02 0.00000E+00 1.02073E-14 8.92887E-15
 -1        11 1.84558E+02 1.84558E+02 2.30914E+02 0.00000E+00 5.90079E-15 5.18617E-15
 -1        12 1.84558E+02 1.84558E+02 2.30914E+02 0.00000E+00 5.61057E-15 3.98145E-15
 -1        13 1.84558E+02 1.84558E+02 2.30914E+02 0.00000E+00-3.98886E-15-5.87281E-16
 -1        14 1.84558E+02 1.84558E+02 2.30914E+02 0.00000E+00 9.50625E-15 2.07232E-15
 -1        15 1.84558E+02 1.84558E+02 2.30914E+02 0.00000E+00-2.69680E-14 5.77731E-15
 -1        16 1.84558E+02 1.84558E+02 2.30914E+02 0.00000E+00 1.03173E-14 9.68778E-15
 -1        17 1.84558E+02 1.84558E+02 2.30914E+02 0.00000E+00-1.12806E-15 5.27293E-15
 -1        18 1.84558E+02 1.84558E+02 2.30914E+02 0.00000E+00 1.41262E-14-1.81976E-14
 -1        19 1.84558E+02 1.84558E+02 2.30914E+02 0.00000E+00 1.21235E-14-2.59841E-15
 -1        20 1.84558E+02 1.84558E+02 2.30914E+02 0.00000E+00 5.34118E-15 1.03592E-14
 -3
    1PSTEP                       708         142           1          
  100CL  242 263979.1120          20                     0  142           1
 -4  TOSTRAIN    6    1
 -5  EXX         1    4    1    1
 -5  EYY         1    4    2    2
 -5  EZZ         1    4    3    3
 -5  EXY         1    4    1    2
 -5  EYZ         1    4    2    3
 -5  EZX         1    4    3    1
 -1         1 0.00000E+00 0.00000E+00 1.99992E-03 0.00000E+00 4.12546E-19 7.19066E-19
 -1         2 0.00000E+00 0.00000E+00 1.99992E-03 0.00000E+00-6.48839E-19-8.08690E-19
 -1         3 0.00000E+00 0.00000E+00 1.99992E-03 0.00000E+00-1.00914E-19-1.19850E-18
 -1         4 0.00000E+00 0.00000E+00 1.99992E-03 0.00000E+00-2.30863E-19 1.76134E-18
 -1         5 0.00000E+00 0.00000E+00 1.99992E-03 0.00000E+00 2.96159E-19-2.53224E-19
 -1         6 0.00000E+00 0.00000E+00 1.99992E-03 0.00000E+00-2.13856E-19 8.66809E-21
 -1         7 0.00000E+00 0.00000E+00 1.99992E-03 0.00000E+00 1.93228E-18 1.41309E-18
 -1         8 0.00000E+00 0.00000E+00 1.99992E-03 0.00000E+00-2.93494E-21-3.76507E-19
 -1         9 0.00000E+00 0.00000E+00 2.00010E-03 0.00000E+00-4.18795E-19-2.04593E-19
 -1        10 0.00000E+00 0.00000E+00 2.00010E-03 0.00000E+00 4.40404E-19 3.85247E-19
 -1        11 0.00000E+00 0.00000E+00 2.00010E-03 0.00000E+00 2.54597E-19 2.23763E-19
 -1        12 0.00000E+00 0.00000E+00 2.00010E-03 0.00000E+00 2.42075E-19 1.71784E-19
 -1        13 0.00000E+00 0.00000E+00 2.00010E-03 0.00000E+00-1.72104E-19-2.53389E-20
 -1        14 0.00000E+00 0.00000E+00 2.00010E-03 0.00000E+00 4.10158E-19 8.94127E-20
 -1        15 0.00000E+00 0.00000E+00 2.00010E-03 0.00000E+00-1.16356E-18 2.49269E-19
 -1        16 0.00000E+00 0.00000E+00 2.00010E-03 0.00000E+00 4.45153E-19 4.17991E-19
 -1        17 0.00000E+00 0.00000E+00 2.00010E-03 0.00000E+00-4.86716E-20 2.27507E-19
 -1        18 0.00000E+00 0.00000E+00 2.00010E-03 0.00000E+00 6.09490E-19-7.85158E-19
 -1        19 0.00000E+00 0.00000E+00 2.00010E-03 0.00000E+00 5.23083E-19-1.12112E-19
 -1        20 0.00000E+00 0.00000E+00 2.00010E-03 0.00000E+00 2.30452E-19 4.46960E-19
 -3
    1PSTEP                       709         142           1          
  100CL  242 263979.1120          20                     0  142           1
 -4  FORC        4    1
 -5  F1          1    2    1    0
 -5  F2          1    2    2    0
 -5  F3          1    2    3    0
 -5  ALL         1    2    0    0    1ALL
 -1         1-1.53791E+01-1.53791E+01 1.92419E+01
 -1         2-1.53791E+01 1.53791E+01 1.92419E+01
 -1         3-1.53791E+01 1.53791E+01-1.92419E+01
 -1         4-1.53791E+01-1.53791E+01-1.92419E+01
 -1         5 1.53791E+01-1.53791E+01 1.92419E+01
 -1         6 1.53791E+01 1.53791E+01 1.92419E+01
 -1         7 1.53791E+01 1.53791E+01-1.92419E+01
 -1         8 1.53791E+01-1.53791E+01-1.92419E+01
 -1         9 6.15162E+01-6.67712E-15-7.69676E+01
 -1        10 6.15162E+01-6.15162E+01 9.32587E-15
 -1        11 6.15162E+01 3.79054E-15 7.69676E+01
 -1        12 6.15162E+01 6.15162E+01 2.67286E-14
 -1        13-4.89591E-15 6.15162E+01-7.69676E+01
 -1        14 2.52271E-14-6.15162E+01-7.69676E+01
 -1        15-5.24305E-15-6.15162E+01 7.69676E+01
 -1        16-6.42837E-15 6.15162E+01 7.69676E+01
 -1        17-6.15162E+01-1.24252E-16-7.69676E+01
 -1        18-6.15162E+01-6.15162E+01 1.77636E-15
 -1        19-6.15162E+01 1.24252E-16 7.69676E+01
 -1        20-6.15162E+01 6.15162E+01 7.77156E-15
 -3
    1PSTEP                       710         142           1          
  100CL  242 263979.1120          20                     0  142           1
 -4  ERROR       1    1
 -5  STR(%)      1    1    0    0
 -1         1 1.88881E-14
 -1         2 1.88881E-14
 -1         3 1.88881E-14
 -1         4 1.88881E-14
 -1         5 1.88881E-14
 -1         6 1.88881E-14
 -1         7 1.88881E-14
 -1         8 1.88881E-14
 -1         9 1.88881E-14
 -1        10 1.88881E-14
 -1        11 1.88881E-14
 -1        12 1.88881E-14
 -1        13 1.88881E-14
 -1        14 1.88881E-14
 -1        15 1.88881E-14
 -1        16 1.88881E-14
 -1        17 1.88881E-14
 -1        18 1.88881E-14
 -1        19 1.88881E-14
 -1        20 1.88881E-14
 -3
    1PSTEP                       711         143           1          
  100CL  243 267337.9042          20                     0  143           1
 -4  DISP        4    1
 -5  D1          1    2    1    0
 -5  D2          1    2    2    0
 -5  D3          1    2    3    0
 -5  ALL         1    2    0    0    1ALL
 -1         1 0.00000E+00 0.00000E+00 0.00000E+00
 -1         2 0.00000E+00 0.00000E+00 0.00000E+00
 -1         3 0.00000E+00 0.00000E+00 2.00000E-03
 -1         4 0.00000E+00 0.00000E+00 2.00000E-03
 -1         5 0.00000E+00 0.00000E+00 0.00000E+00
 -1         6 0.00000E+00 0.00000E+00 0.00000E+00
 -1         7 0.00000E+00 0.00000E+00 2.00000E-03
 -1         8 0.00000E+00 0.00000E+00 2.00000E-03
 -1         9 0.00000E+00 0.00000E+00 0.00000E+00
 -1        10 0.00000E+00 0.00000E+00 1.00000E-03
 -1        11 0.00000E+00 0.00000E+00 2.00000E-03
 -1        12 0.00000E+00 0.00000E+00 1.00000E-03
 -1        13 0.00000E+00 0.00000E+00 0.00000E+00
 -1        14 0.00000E+00 0.00000E+00 0.00000E+00
 -1        15 0.00000E+00 0.00000E+00 2.00000E-03
 -1        16 0.00000E+00 0.00000E+00 2.00000E-03
 -1        17 0.00000E+00 0.00000E+00 0.00000E+00
 -1        18 0.00000E+00 0.00000E+00 1.00000E-03
 -1        19 0.00000E+00 0.00000E+00 2.00000E-03
 -1        20 0.00000E+00 0.00000E+00 1.00000E-03
 -3
    1PSTEP                       712         143           1          
  100CL  243 267337.9042          20                     0  143           1
 -4  STRESS      6    1
 -5  SXX         1    4    1    1
 -5  SYY         1    4    2    2
 -5  SZZ         1    4    3    3
 -5  SXY         1    4    1    2
 -5  SYZ         1    4    2    3
 -5  SZX         1    4    3    1
 -1         1 1.84747E+02 1.84747E+02 2.30482E+02 0.00000E+00 9.43422E-15 1.64438E-14
 -1         2 1.84747E+02 1.84747E+02 2.30482E+02 0.00000E+00-1.48378E-14-1.84933E-14
 -1         3 1.84747E+02 1.84747E+02 2.30482E+02 0.00000E+00-2.30772E-15-2.74077E-14
 -1         4 1.84747E+02 1.84747E+02 2.30482E+02 0.00000E+00-5.27944E-15 4.02788E-14
 -1         5 1.84747E+02 1.84747E+02 2.30482E+02 0.00000E+00 6.77264E-15-5.79080E-15
 -1         6 1.84747E+02 1.84747E+02 2.30482E+02 0.00000E+00-4.89053E-15 1.98224E-16
 -1         7 1.84747E+02 1.84747E+02 2.30482E+02 0.00000E+00 4.41880E-14 3.23148E-14
 -1         8 1.84747E+02 1.84747E+02 2.30482E+02 0.00000E+00-6.71169E-17-8.61006E-15
 -1         9 1.84764E+02 1.84764E+02 2.30503E+02 0.00000E+00-9.57713E-15-4.67869E-15
 -1        10 1.84764E+02 1.84764E+02 2.30503E+02 0.00000E+00 1.00713E-14 8.80994E-15
 -1        11 1.84764E+02 1.84764E+02 2.30503E+02 0.00000E+00 5.82219E-15 5.11708E-15
 -1        12 1.84764E+02 1.84764E+02 2.30503E+02 0.00000E+00 5.53583E-15 3.92842E-15
 -1        13 1.84764E+02 1.84764E+02 2.30503E+02 0.00000E+00-3.93573E-15-5.79458E-16
 -1        14 1.84764E+02 1.84764E+02 2.30503E+02 0.00000E+00 9.37962E-15 2.04472E-15
 -1        15 1.84764E+02 1.84764E+02 2.30503E+02 0.00000E+00-2.66087E-14 5.70035E-15
 -1        16 1.84764E+02 1.84764E+02 2.30503E+02 0.00000E+00 1.01799E-14 9.55873E-15
 -1        17 1.84764E+02 1.84764E+02 2.30503E+02 0.00000E+00-1.11304E-15 5.20269E-15
 -1        18 1.84764E+02 1.84764E+02 2.30503E+02 0.00000E+00 1.39380E-14-1.79552E-14
 -1        19 1.84764E+02 1.84764E+02 2.30503E+02 0.00000E+00 1.19620E-14-2.56380E-15
 -1        20 1.84764E+02 1.84764E+02 2.30503E+02 0.00000E+00 5.27003E-15 1.02212E-14
 -3
    1PSTEP                       713         143           1          
  100CL  243 267337.9042          20                     0  143           1
 -4  TOSTRAIN    6    1
 -5  EXX         1    4    1    1
 -5  EYY         1    4    2    2
 -5  EZZ         1    4    3    3
 -5  EXY         1    4    1    2
 -5  EYZ         1    4    2    3
 -5  EZX         1    4    3    1
 -1         1 0.00000E+00 0.00000E+00 1.99992E-03 0.00000E+00 4.12546E-19 7.19066E-19
 -1         2 0.00000E+00 0.00000E+00 1.99992E-03 0.00000E+00-6.48839E-19-8.08690E-19
 -1         3 0.00000E+00 0.00000E+00 1.99992E-03 0.00000E+00-1.00914E-19-1.19850E-18
 -1         4 0.00000E+00 0.00000E+00 1.99992E-03 0.00000E+00-2.30863E-19 1.76134E-18
 -1         5 0.00000E+00 0.00000E+00 1.99992E-03 0.00000E+00 2.96159E-19-2.53224E-19
 -1         6 0.00000E+00 0.00000E+00 1.99992E-03 0.00000E+00-2.13856E-19 8.66809E-21
 -1         7 0.00000E+00 0.00000E+00 1.99992E-03 0.00000E+00 1.93228E-18 1.41309E-18
 -1         8 0.00000E+00 0.00000E+00 1.99992E-03 0.00000E+00-2.93494E-21-3.76507E-19
 -1         9 0.00000E+00 0.00000E+00 2.00010E-03 0.00000E+00-4.18795E-19-2.04593E-19
 -1        10 0.00000E+00 0.00000E+00 2.00010E-03 0.00000E+00 4.40404E-19 3.85247E-19
 -1        11 0.00000E+00 0.00000E+00 2.00010E-03 0.00000E+00 2.54597E-19 2.23763E-19
 -1        12 0.00000E+00 0.00000E+00 2.00010E-03 0.00000E+00 2.42075E-19 1.71784E-19
 -1        13 0.00000E+00 0.00000E+00 2.00010E-03 0.00000E+00-1.72104E-19-2.53389E-20
 -1        14 0.00000E+00 0.00000E+00 2.00010E-03 0.00000E+00 4.10158E-19 8.94127E-20
 -1        15 0.00000E+00 0.00000E+00 2.00010E-03 0.00000E+00-1.16356E-18 2.49269E-19
 -1        16 0.00000E+00 0.00000E+00 2.00010E-03 0.00000E+00 4.45153E-19 4.17991E-19
 -1        17 0.00000E+00 0.00000E+00 2.00010E-03 0.00000E+00-4.86716E-20 2.27507E-19
 -1        18 0.00000E+00 0.00000E+00 2.00010E-03 0.00000E+00 6.09490E-19-7.85158E-19
 -1        19 0.00000E+00 0.00000E+00 2.00010E-03 0.00000E+00 5.23083E-19-1.12112E-19
 -1        20 0.00000E+00 0.00000E+00 2.00010E-03 0.00000E+00 2.30452E-19 4.46960E-19
 -3
    1PSTEP                       714         143           1          
  100CL  243 267337.9042          20                     0  143           1
 -4  FORC        4    1
 -5  F1          1    2    1    0
 -5  F2          1    2    2    0
 -5  F3          1    2    3    0
 -5  ALL         1    2    0    0    1ALL
 -1         1-1.53962E+01-1.53962E+01 1.92076E+01
 -1         2-1.53962E+01 1.53962E+01 1.92076E+01
 -1         3-1.53962E+01 1.53962E+01-1.92076E+01
 -1         4-1.53962E+01-1.53962E+01-1.92076E+01
 -1         5 1.53962E+01-1.53962E+01 1.92076E+01
 -1         6 1.53962E+01 1.53962E+01 1.92076E+01
 -1         7 1.53962E+01 1.53962E+01-1.92076E+01
 -1         8 1.53962E+01-1.53962E+01-1.92076E+01
 -1         9 6.15848E+01-2.87440E-15-7.68303E+01
 -1        10 6.15848E+01-6.15848E+01 7.99361E-15
 -1        11 6.15848E+01 2.23602E-15 7.68303E+01
 -1        12 6.15848E+01 6.15848E+01 1.89293E-14
 -1        13-4.34065E-15 6.15848E+01-7.68303E+01
 -1        14 7.46464E-15-6.15848E+01-7.68303E+01
 -1        15 3.63759E-15-6.15848E+01 7.68303E+01
 -1        16-3.09784E-15 6.15848E+01 7.68303E+01
 -1        17-6.15848E+01 5.20647E-15-7.68303E+01
 -1        18-6.15848E+01-6.15848E+01 5.32907E-15
 -1        19-6.15848E+01 3.67531E-15 7.68303E+01
 -1        20-6.15848E+01 6.15848E+01 1.08802E-14
 -3
    1PSTEP                       715         143           1          
  100CL  243 267337.9042          20                     0  143           1
 -4  ERROR       1    1
 -5  STR(%)      1    1    0    0
 -1         1 8.19946E-15
 -1         2 8.19946E-15
 -1         3 8.19946E-15
 -1         4 8.19946E-15
 -1         5 8.19946E-15
 -1         6 8.19946E-15
 -1         7 8.19946E-15
 -1         8 8.19946E-15
 -1         9 8.19946E-15
 -1        10 8.19946E-15
 -1        11 8.19946E-15
 -1        12 8.19946E-15
 -1        13 8.19946E-15
 -1        14 8.19946E-15
 -1        15 8.19946E-15
 -1        16 8.19946E-15
 -1        17 8.19946E-15
 -1        18 8.19946E-15
 -1        19 8.19946E-15
 -1        20 8.19946E-15
 -3
    1PSTEP                       716         144           1          
  100CL  244 269667.4181          20                     0  144           1
 -4  DISP        4    1
 -5  D1          1    2    1    0
 -5  D2          1    2    2    0
 -5  D3          1    2    3    0
 -5  ALL         1    2    0    0    1ALL
 -1         1 0.00000E+00 0.00000E+00 0.00000E+00
 -1         2 0.00000E+00 0.00000E+00 0.00000E+00
 -1         3 0.00000E+00 0.00000E+00 2.00000E-03
 -1         4 0.00000E+00 0.00000E+00 2.00000E-03
 -1         5 0.00000E+00 0.00000E+00 0.00000E+00
 -1         6 0.00000E+00 0.00000E+00 0.00000E+00
 -1         7 0.00000E+00 0.00000E+00 2.00000E-03
 -1         8 0.00000E+00 0.00000E+00 2.00000E-03
 -1         9 0.00000E+00 0.00000E+00 0.00000E+00
 -1        10 0.00000E+00 0.00000E+00 1.00000E-03
 -1        11 0.00000E+00 0.00000E+00 2.00000E-03
 -1        12 0.00000E+00 0.00000E+00 1.00000E-03
 -1        13 0.00000E+00 0.00000E+00 0.00000E+00
 -1        14 0.00000E+00 0.00000E+00 0.00000E+00
 -1        15 0.00000E+00 0.00000E+00 2.00000E-03
 -1        16 0.00000E+00 0.00000E+00 2.00000E-03
 -1        17 0.00000E+00 0.00000E+00 0.00000E+00
 -1        18 0.00000E+00 0.00000E+00 1.00000E-03
 -1        19 0.00000E+00 0.00000E+00 2.00000E-03
 -1        20 0.00000E+00 0.00000E+00 1.00000E-03
 -3
    1PSTEP                       717         144           1          
  100CL  244 269667.4181          20                     0  144           1
 -4  STRESS      6    1
 -5  SXX         1    4    1    1
 -5  SYY         1    4    2    2
 -5  SZZ         1    4    3    3
 -5  SXY         1    4    1    2
 -5  SYZ         1    4    2    3
 -5  SZX         1    4    3    1
 -1         1 1.84889E+02 1.84889E+02 2.30199E+02 0.00000E+00 9.34670E-15 1.62913E-14
 -1         2 1.84889E+02 1.84889E+02 2.30199E+02 0.00000E+00-1.47002E-14-1.83218E-14
 -1         3 1.84889E+02 1.84889E+02 2.30199E+02 0.00000E+00-2.28632E-15-2.71534E-14
 -1         4 1.84889E+02 1.84889E+02 2.30199E+02 0.00000E+00-5.23046E-15 3.99051E-14
 -1         5 1.84889E+02 1.84889E+02 2.30199E+02 0.00000E+00 6.70981E-15-5.73709E-15
 -1         6 1.84889E+02 1.84889E+02 2.30199E+02 0.00000E+00-4.84516E-15 1.96386E-16
 -1         7 1.84889E+02 1.84889E+02 2.30199E+02 0.00000E+00 4.37781E-14 3.20151E-14
 -1         8 1.84889E+02 1.84889E+02 2.30199E+02 0.00000E+00-6.64943E-17-8.53019E-15
 -1         9 1.84905E+02 1.84905E+02 2.30220E+02 0.00000E+00-9.48828E-15-4.63529E-15
 -1        10 1.84905E+02 1.84905E+02 2.30220E+02 0.00000E+00 9.97787E-15 8.72821E-15
 -1        11 1.84905E+02 1.84905E+02 2.30220E+02 0.00000E+00 5.76818E-15 5.06962E-15
 -1        12 1.84905E+02 1.84905E+02 2.30220E+02 0.00000E+00 5.48448E-15 3.89197E-15
 -1        13 1.84905E+02 1.84905E+02 2.30220E+02 0.00000E+00-3.89922E-15-5.74083E-16
 -1        14 1.84905E+02 1.84905E+02 2.30220E+02 0.00000E+00 9.29261E-15 2.02575E-15
 -1        15 1.84905E+02 1.84905E+02 2.30220E+02 0.00000E+00-2.63619E-14 5.64747E-15
 -1        16 1.84905E+02 1.84905E+02 2.30220E+02 0.00000E+00 1.00855E-14 9.47006E-15
 -1        17 1.84905E+02 1.84905E+02 2.30220E+02 0.00000E+00-1.10271E-15 5.15443E-15
 -1        18 1.84905E+02 1.84905E+02 2.30220E+02 0.00000E+00 1.38087E-14-1.77887E-14
 -1        19 1.84905E+02 1.84905E+02 2.30220E+02 0.00000E+00 1.18510E-14-2.54002E-15
 -1        20 1.84905E+02 1.84905E+02 2.30220E+02 0.00000E+00 5.22114E-15 1.01264E-14
 -3
    1PSTEP                       718         144           1          
  100CL  244 269667.4181          20                     0  144           1
 -4  TOSTRAIN    6    1
 -5  EXX         1    4    1    1
 -5  EYY         1    4    2    2
 -5  EZZ         1    4    3    3
 -5  EXY         1    4    1    2
 -5  EYZ         1    4    2    3
 -5  EZX         1    4    3    1
 -1         1 0.00000E+00 0.00000E+00 1.99992E-03 0.00000E+00 4.12546E-19 7.19066E-19
 -1         2 0.00000E+00 0.00000E+00 1.99992E-03 0.00000E+00-6.48839E-19-8.08690E-19
 -1         3 0.00000E+00 0.00000E+00 1.99992E-03 0.00000E+00-1.00914E-19-1.19850E-18
 -1         4 0.00000E+00 0.00000E+00 1.99992E-03 0.00000E+00-2.30863E-19 1.76134E-18
 -1         5 0.00000E+00 0.00000E+00 1.99992E-03 0.00000E+00 2.96159E-19-2.53224E-19
 -1         6 0.00000E+00 0.00000E+00 1.99992E-03 0.00000E+00-2.13856E-19 8.66809E-21
 -1         7 0.00000E+00 0.00000E+00 1.99992E-03 0.00000E+00 1.93228E-18 1.41309E-18
 -1         8 0.00000E+00 0.00000E+00 1.99992E-03 0.00000E+00-2.93494E-21-3.76507E-19
 -1         9 0.00000E+00 0.00000E+00 2.00010E-03 0.00000E+00-4.18795E-19-2.04593E-19
 -1        10 0.00000E+00 0.00000E+00 2.00010E-03 0.00000E+00 4.40404E-19 3.85247E-19
 -1        11 0.00000E+00 0.00000E+00 2.00010E-03 0.00000E+00 2.54597E-19 2.23763E-19
 -1        12 0.00000E+00 0.00000E+00 2.00010E-03 0.00000E+00 2.42075E-19 1.71784E-19
 -1        13 0.00000E+00 0.00000E+00 2.00010E-03 0.00000E+00-1.72104E-19-2.53389E-20
 -1        14 0.00000E+00 0.00000E+00 2.00010E-03 0.00000E+00 4.10158E-19 8.94127E-20
 -1        15 0.00000E+00 0.00000E+00 2.00010E-03 0.00000E+00-1.16356E-18 2.49269E-19
 -1        16 0.00000E+00 0.00000E+00 2.00010E-03 0.00000E+00 4.45153E-19 4.17991E-19
 -1        17 0.00000E+00 0.00000E+00 2.00010E-03 0.00000E+00-4.86716E-20 2.27507E-19
 -1        18 0.00000E+00 0.00000E+00 2.00010E-03 0.00000E+00 6.09490E-19-7.85158E-19
 -1        19 0.00000E+00 0.00000E+00 2.00010E-03 0.00000E+00 5.23083E-19-1.12112E-19
 -1        20 0.00000E+00 0.00000E+00 2.00010E-03 0.00000E+00 2.30452E-19 4.46960E-19
 -3
    1PSTEP                       719         144           1          
  100CL  244 269667.4181          20                     0  144           1
 -4  FORC        4    1
 -5  F1          1    2    1    0
 -5  F2          1    2    2    0
 -5  F3          1    2    3    0
 -5  ALL         1    2    0    0    1ALL
 -1         1-1.54080E+01-1.54080E+01 1.91840E+01
 -1         2-1.54080E+01 1.54080E+01 1.91840E+01
 -1         3-1.54080E+01 1.54080E+01-1.91840E+01
 -1         4-1.54080E+01-1.54080E+01-1.91840E+01
 -1         5 1.54080E+01-1.54080E+01 1.91840E+01
 -1         6 1.54080E+01 1.54080E+01 1.91840E+01
 -1         7 1.54080E+01 1.54080E+01-1.91840E+01
 -1         8 1.54080E+01-1.54080E+01-1.91840E+01
 -1         9 6.16320E+01-4.42856E-15-7.67361E+01
 -1        10 6.16320E+01-6.16320E+01 7.54952E-15
 -1        11 6.16320E+01 4.23427E-15 7.67361E+01
 -1        12 6.16320E+01 6.16320E+01 2.18991E-14
 -1        13-1.07521E-14 6.16320E+01-7.67361E+01
 -1        14 1.56811E-14-6.16320E+01-7.67361E+01
 -1        15-5.24498E-15-6.16320E+01 7.67361E+01
 -1        16-7.98293E-15 6.16320E+01 7.67361E+01
 -1        17-6.16320E+01 3.20921E-15-7.67361E+01
 -1        18-6.16320E+01-6.16320E+01 8.88178E-15
 -1        19-6.16320E+01 5.45053E-15 7.67361E+01
 -1        20-6.16320E+01 6.16320E+01 4.21885E-15
 -3
    1PSTEP                       720         144           1          
  100CL  244 269667.4181          20                     0  144           1
 -4  ERROR       1    1
 -5  STR(%)      1    1    0    0
 -1         1 1.01040E-14
 -1         2 1.01040E-14
 -1         3 1.01040E-14
 -1         4 1.01040E-14
 -1         5 1.01040E-14
 -1         6 1.01040E-14
 -1         7 1.01040E-14
 -1         8 1.01040E-14
 -1         9 1.01040E-14
 -1        10 1.01040E-14
 -1        11 1.01040E-14
 -1        12 1.01040E-14
 -1        13 1.01040E-14
 -1        14 1.01040E-14
 -1        15 1.01040E-14
 -1        16 1.01040E-14
 -1        17 1.01040E-14
 -1        18 1.01040E-14
 -1        19 1.01040E-14
 -1        20 1.01040E-14
 -3
    1PSTEP                       721         145           1          
  100CL  245 271996.9321          20                     0  145           1
 -4  DISP        4    1
 -5  D1          1    2    1    0
 -5  D2          1    2    2    0
 -5  D3          1    2    3    0
 -5  ALL         1    2    0    0    1ALL
 -1         1 0.00000E+00 0.00000E+00 0.00000E+00
 -1         2 0.00000E+00 0.00000E+00 0.00000E+00
 -1         3 0.00000E+00 0.00000E+00 2.00000E-03
 -1         4 0.00000E+00 0.00000E+00 2.00000E-03
 -1         5 0.00000E+00 0.00000E+00 0.00000E+00
 -1         6 0.00000E+00 0.00000E+00 0.00000E+00
 -1         7 0.00000E+00 0.00000E+00 2.00000E-03
 -1         8 0.00000E+00 0.00000E+00 2.00000E-03
 -1         9 0.00000E+00 0.00000E+00 0.00000E+00
 -1        10 0.00000E+00 0.00000E+00 1.00000E-03
 -1        11 0.00000E+00 0.00000E+00 2.00000E-03
 -1        12 0.00000E+00 0.00000E+00 1.00000E-03
 -1        13 0.00000E+00 0.00000E+00 0.00000E+00
 -1        14 0.00000E+00 0.00000E+00 0.00000E+00
 -1        15 0.00000E+00 0.00000E+00 2.00000E-03
 -1        16 0.00000E+00 0.00000E+00 2.00000E-03
 -1        17 0.00000E+00 0.00000E+00 0.00000E+00
 -1        18 0.00000E+00 0.00000E+00 1.00000E-03
 -1        19 0.00000E+00 0.00000E+00 2.00000E-03
 -1        20 0.00000E+00 0.00000E+00 1.00000E-03
 -3
    1PSTEP                       722         145           1          
  100CL  245 271996.9321          20                     0  145           1
 -4  STRESS      6    1
 -5  SXX         1    4    1    1
 -5  SYY         1    4    2    2
 -5  SZZ         1    4    3    3
 -5  SXY         1    4    1    2
 -5  SYZ         1    4    2    3
 -5  SZX         1    4    3    1
 -1         1 1.85029E+02 1.85029E+02 2.29919E+02 0.00000E+00 9.26000E-15 1.61401E-14
 -1         2 1.85029E+02 1.85029E+02 2.29919E+02 0.00000E+00-1.45638E-14-1.81518E-14
 -1         3 1.85029E+02 1.85029E+02 2.29919E+02 0.00000E+00-2.26511E-15-2.69015E-14
 -1         4 1.85029E+02 1.85029E+02 2.29919E+02 0.00000E+00-5.18194E-15 3.95349E-14
 -1         5 1.85029E+02 1.85029E+02 2.29919E+02 0.00000E+00 6.64757E-15-5.68387E-15
 -1         6 1.85029E+02 1.85029E+02 2.29919E+02 0.00000E+00-4.80021E-15 1.94564E-16
 -1         7 1.85029E+02 1.85029E+02 2.29919E+02 0.00000E+00 4.33720E-14 3.17181E-14
 -1         8 1.85029E+02 1.85029E+02 2.29919E+02 0.00000E+00-6.58775E-17-8.45106E-15
 -1         9 1.85045E+02 1.85045E+02 2.29939E+02 0.00000E+00-9.40027E-15-4.59229E-15
 -1        10 1.85045E+02 1.85045E+02 2.29939E+02 0.00000E+00 9.88531E-15 8.64725E-15
 -1        11 1.85045E+02 1.85045E+02 2.29939E+02 0.00000E+00 5.71467E-15 5.02259E-15
 -1        12 1.85045E+02 1.85045E+02 2.29939E+02 0.00000E+00 5.43360E-15 3.85587E-15
 -1        13 1.85045E+02 1.85045E+02 2.29939E+02 0.00000E+00-3.86305E-15-5.68758E-16
 -1        14 1.85045E+02 1.85045E+02 2.29939E+02 0.00000E+00 9.20641E-15 2.00696E-15
 -1        15 1.85045E+02 1.85045E+02 2.29939E+02 0.00000E+00-2.61174E-14 5.59509E-15
 -1        16 1.85045E+02 1.85045E+02 2.29939E+02 0.00000E+00 9.99190E-15 9.38221E-15
 -1        17 1.85045E+02 1.85045E+02 2.29939E+02 0.00000E+00-1.09248E-15 5.10662E-15
 -1        18 1.85045E+02 1.85045E+02 2.29939E+02 0.00000E+00 1.36806E-14-1.76236E-14
 -1        19 1.85045E+02 1.85045E+02 2.29939E+02 0.00000E+00 1.17411E-14-2.51646E-15
 -1        20 1.85045E+02 1.85045E+02 2.29939E+02 0.00000E+00 5.17271E-15 1.00325E-14
 -3
    1PSTEP                       723         145           1          
  100CL  245 271996.9321          20                     0  145           1
 -4  TOSTRAIN    6    1
 -5  EXX         1    4    1    1
 -5  EYY         1    4    2    2
 -5  EZZ         1    4    3    3
 -5  EXY         1    4    1    2
 -5  EYZ         1    4    2    3
 -5  EZX         1    4    3    1
 -1         1 0.00000E+00 0.00000E+00 1.99992E-03 0.00000E+00 4.12546E-19 7.19066E-19
 -1         2 0.00000E+00 0.00000E+00 1.99992E-03 0.00000E+00-6.48839E-19-8.08690E-19
 -1         3 0.00000E+00 0.00000E+00 1.99992E-03 0.00000E+00-1.00914E-19-1.19850E-18
 -1         4 0.00000E+00 0.00000E+00 1.99992E-03 0.00000E+00-2.30863E-19 1.76134E-18
 -1         5 0.00000E+00 0.00000E+00 1.99992E-03 0.00000E+00 2.96159E-19-2.53224E-19
 -1         6 0.00000E+00 0.00000E+00 1.99992E-03 0.00000E+00-2.13856E-19 8.66809E-21
 -1         7 0.00000E+00 0.00000E+00 1.99992E-03 0.00000E+00 1.93228E-18 1.41309E-18
 -1         8 0.00000E+00 0.00000E+00 1.99992E-03 0.00000E+00-2.93494E-21-3.76507E-19
 -1         9 0.00000E+00 0.00000E+00 2.00010E-03 0.00000E+00-4.18795E-19-2.04593E-19
 -1        10 0.00000E+00 0.00000E+00 2.00010E-03 0.00000E+00 4.40404E-19 3.85247E-19
 -1        11 0.00000E+00 0.00000E+00 2.00010E-03 0.00000E+00 2.54597E-19 2.23763E-19
 -1        12 0.00000E+00 0.00000E+00 2.00010E-03 0.00000E+00 2.42075E-19 1.71784E-19
 -1        13 0.00000E+00 0.00000E+00 2.00010E-03 0.00000E+00-1.72104E-19-2.53389E-20
 -1        14 0.00000E+00 0.00000E+00 2.00010E-03 0.00000E+00 4.10158E-19 8.94127E-20
 -1        15 0.00000E+00 0.00000E+00 2.00010E-03 0.00000E+00-1.16356E-18 2.49269E-19
 -1        16 0.00000E+00 0.00000E+00 2.00010E-03 0.00000E+00 4.45153E-19 4.17991E-19
 -1        17 0.00000E+00 0.00000E+00 2.00010E-03 0.00000E+00-4.86716E-20 2.27507E-19
 -1        18 0.00000E+00 0.00000E+00 2.00010E-03 0.00000E+00 6.09490E-19-7.85158E-19
 -1        19 0.00000E+00 0.00000E+00 2.00010E-03 0.00000E+00 5.23083E-19-1.12112E-19
 -1        20 0.00000E+00 0.00000E+00 2.00010E-03 0.00000E+00 2.30452E-19 4.46960E-19
 -3
    1PSTEP                       724         145           1          
  100CL  245 271996.9321          20                     0  145           1
 -4  FORC        4    1
 -5  F1          1    2    1    0
 -5  F2          1    2    2    0
 -5  F3          1    2    3    0
 -5  ALL         1    2    0    0    1ALL
 -1         1-1.54197E+01-1.54197E+01 1.91607E+01
 -1         2-1.54197E+01 1.54197E+01 1.91607E+01
 -1         3-1.54197E+01 1.54197E+01-1.91607E+01
 -1         4-1.54197E+01-1.54197E+01-1.91607E+01
 -1         5 1.54197E+01-1.54197E+01 1.91607E+01
 -1         6 1.54197E+01 1.54197E+01 1.91607E+01
 -1         7 1.54197E+01 1.54197E+01-1.91607E+01
 -1         8 1.54197E+01-1.54197E+01-1.91607E+01
 -1         9 6.16787E+01-7.98113E-15-7.66427E+01
 -1        10 6.16787E+01-6.16787E+01 1.77636E-15
 -1        11 6.16787E+01 2.23573E-15 7.66427E+01
 -1        12 6.16787E+01 6.16787E+01 2.08999E-14
 -1        13-1.81350E-14 6.16787E+01-7.66427E+01
 -1        14 1.45716E-14-6.16787E+01-7.66427E+01
 -1        15 5.41238E-15-6.16787E+01 7.66427E+01
 -1        16-2.87600E-15 6.16787E+01 7.66427E+01
 -1        17-6.16787E+01 3.21034E-15-7.66427E+01
 -1        18-6.16787E+01-6.16787E+01 5.32907E-15
 -1        19-6.16787E+01 1.20333E-16 7.66427E+01
 -1        20-6.16787E+01 6.16787E+01 3.33067E-15
 -3
    1PSTEP                       725         145           1          
  100CL  245 271996.9321          20                     0  145           1
 -4  ERROR       1    1
 -5  STR(%)      1    1    0    0
 -1         1 1.70713E-14
 -1         2 1.70713E-14
 -1         3 1.70713E-14
 -1         4 1.70713E-14
 -1         5 1.70713E-14
 -1         6 1.70713E-14
 -1         7 1.70713E-14
 -1         8 1.70713E-14
 -1         9 1.70713E-14
 -1        10 1.70713E-14
 -1        11 1.70713E-14
 -1        12 1.70713E-14
 -1        13 1.70713E-14
 -1        14 1.70713E-14
 -1        15 1.70713E-14
 -1        16 1.70713E-14
 -1        17 1.70713E-14
 -1        18 1.70713E-14
 -1        19 1.70713E-14
 -1        20 1.70713E-14
 -3
    1PSTEP                       726         146           1          
  100CL  246 275491.2030          20                     0  146           1
 -4  DISP        4    1
 -5  D1          1    2    1    0
 -5  D2          1    2    2    0
 -5  D3          1    2    3    0
 -5  ALL         1    2    0    0    1ALL
 -1         1 0.00000E+00 0.00000E+00 0.00000E+00
 -1         2 0.00000E+00 0.00000E+00 0.00000E+00
 -1         3 0.00000E+00 0.00000E+00 2.00000E-03
 -1         4 0.00000E+00 0.00000E+00 2.00000E-03
 -1         5 0.00000E+00 0.00000E+00 0.00000E+00
 -1         6 0.00000E+00 0.00000E+00 0.00000E+00
 -1         7 0.00000E+00 0.00000E+00 2.00000E-03
 -1         8 0.00000E+00 0.00000E+00 2.00000E-03
 -1         9 0.00000E+00 0.00000E+00 0.00000E+00
 -1        10 0.00000E+00 0.00000E+00 1.00000E-03
 -1        11 0.00000E+00 0.00000E+00 2.00000E-03
 -1        12 0.00000E+00 0.00000E+00 1.00000E-03
 -1        13 0.00000E+00 0.00000E+00 0.00000E+00
 -1        14 0.00000E+00 0.00000E+00 0.00000E+00
 -1        15 0.00000E+00 0.00000E+00 2.00000E-03
 -1        16 0.00000E+00 0.00000E+00 2.00000E-03
 -1        17 0.00000E+00 0.00000E+00 0.00000E+00
 -1        18 0.00000E+00 0.00000E+00 1.00000E-03
 -1        19 0.00000E+00 0.00000E+00 2.00000E-03
 -1        20 0.00000E+00 0.00000E+00 1.00000E-03
 -3
    1PSTEP                       727         146           1          
  100CL  246 275491.2030          20                     0  146           1
 -4  STRESS      6    1
 -5  SXX         1    4    1    1
 -5  SYY         1    4    2    2
 -5  SZZ         1    4    3    3
 -5  SXY         1    4    1    2
 -5  SYZ         1    4    2    3
 -5  SZX         1    4    3    1
 -1         1 1.85236E+02 1.85236E+02 2.29504E+02 0.00000E+00 9.13175E-15 1.59166E-14
 -1         2 1.85236E+02 1.85236E+02 2.29504E+02 0.00000E+00-1.43621E-14-1.79004E-14
 -1         3 1.85236E+02 1.85236E+02 2.29504E+02 0.00000E+00-2.23373E-15-2.65290E-14
 -1         4 1.85236E+02 1.85236E+02 2.29504E+02 0.00000E+00-5.11017E-15 3.89874E-14
 -1         5 1.85236E+02 1.85236E+02 2.29504E+02 0.00000E+00 6.55550E-15-5.60514E-15
 -1         6 1.85236E+02 1.85236E+02 2.29504E+02 0.00000E+00-4.73373E-15 1.91869E-16
 -1         7 1.85236E+02 1.85236E+02 2.29504E+02 0.00000E+00 4.27713E-14 3.12788E-14
 -1         8 1.85236E+02 1.85236E+02 2.29504E+02 0.00000E+00-6.49651E-17-8.33401E-15
 -1         9 1.85253E+02 1.85253E+02 2.29525E+02 0.00000E+00-9.27007E-15-4.52868E-15
 -1        10 1.85253E+02 1.85253E+02 2.29525E+02 0.00000E+00 9.74839E-15 8.52748E-15
 -1        11 1.85253E+02 1.85253E+02 2.29525E+02 0.00000E+00 5.63552E-15 4.95302E-15
 -1        12 1.85253E+02 1.85253E+02 2.29525E+02 0.00000E+00 5.35835E-15 3.80247E-15
 -1        13 1.85253E+02 1.85253E+02 2.29525E+02 0.00000E+00-3.80954E-15-5.60880E-16
 -1        14 1.85253E+02 1.85253E+02 2.29525E+02 0.00000E+00 9.07890E-15 1.97916E-15
 -1        15 1.85253E+02 1.85253E+02 2.29525E+02 0.00000E+00-2.57556E-14 5.51759E-15
 -1        16 1.85253E+02 1.85253E+02 2.29525E+02 0.00000E+00 9.85350E-15 9.25227E-15
 -1        17 1.85253E+02 1.85253E+02 2.29525E+02 0.00000E+00-1.07735E-15 5.03589E-15
 -1        18 1.85253E+02 1.85253E+02 2.29525E+02 0.00000E+00 1.34911E-14-1.73796E-14
 -1        19 1.85253E+02 1.85253E+02 2.29525E+02 0.00000E+00 1.15785E-14-2.48160E-15
 -1        20 1.85253E+02 1.85253E+02 2.29525E+02 0.00000E+00 5.10107E-15 9.89350E-15
 -3
    1PSTEP                       728         146           1          
  100CL  246 275491.2030          20                     0  146           1
 -4  TOSTRAIN    6    1
 -5  EXX         1    4    1    1
 -5  EYY         1    4    2    2
 -5  EZZ         1    4    3    3
 -5  EXY         1    4    1    2
 -5  EYZ         1    4    2    3
 -5  EZX         1    4    3    1
 -1         1 0.00000E+00 0.00000E+00 1.99992E-03 0.00000E+00 4.12546E-19 7.19066E-19
 -1         2 0.00000E+00 0.00000E+00 1.99992E-03 0.00000E+00-6.48839E-19-8.08690E-19
 -1         3 0.00000E+00 0.00000E+00 1.99992E-03 0.00000E+00-1.00914E-19-1.19850E-18
 -1         4 0.00000E+00 0.00000E+00 1.99992E-03 0.00000E+00-2.30863E-19 1.76134E-18
 -1         5 0.00000E+00 0.00000E+00 1.99992E-03 0.00000E+00 2.96159E-19-2.53224E-19
 -1         6 0.00000E+00 0.00000E+00 1.99992E-03 0.00000E+00-2.13856E-19 8.66809E-21
 -1         7 0.00000E+00 0.00000E+00 1.99992E-03 0.00000E+00 1.93228E-18 1.41309E-18
 -1         8 0.00000E+00 0.00000E+00 1.99992E-03 0.00000E+00-2.93494E-21-3.76507E-19
 -1         9 0.00000E+00 0.00000E+00 2.00010E-03 0.00000E+00-4.18795E-19-2.04593E-19
 -1        10 0.00000E+00 0.00000E+00 2.00010E-03 0.00000E+00 4.40404E-19 3.85247E-19
 -1        11 0.00000E+00 0.00000E+00 2.00010E-03 0.00000E+00 2.54597E-19 2.23763E-19
 -1        12 0.00000E+00 0.00000E+00 2.00010E-03 0.00000E+00 2.42075E-19 1.71784E-19
 -1        13 0.00000E+00 0.00000E+00 2.00010E-03 0.00000E+00-1.72104E-19-2.53389E-20
 -1        14 0.00000E+00 0.00000E+00 2.00010E-03 0.00000E+00 4.10158E-19 8.94127E-20
 -1        15 0.00000E+00 0.00000E+00 2.00010E-03 0.00000E+00-1.16356E-18 2.49269E-19
 -1        16 0.00000E+00 0.00000E+00 2.00010E-03 0.00000E+00 4.45153E-19 4.17991E-19
 -1        17 0.00000E+00 0.00000E+00 2.00010E-03 0.00000E+00-4.86716E-20 2.27507E-19
 -1        18 0.00000E+00 0.00000E+00 2.00010E-03 0.00000E+00 6.09490E-19-7.85158E-19
 -1        19 0.00000E+00 0.00000E+00 2.00010E-03 0.00000E+00 5.23083E-19-1.12112E-19
 -1        20 0.00000E+00 0.00000E+00 2.00010E-03 0.00000E+00 2.30452E-19 4.46960E-19
 -3
    1PSTEP                       729         146           1          
  100CL  246 275491.2030          20                     0  146           1
 -4  FORC        4    1
 -5  F1          1    2    1    0
 -5  F2          1    2    2    0
 -5  F3          1    2    3    0
 -5  ALL         1    2    0    0    1ALL
 -1         1-1.54369E+01-1.54369E+01 1.91261E+01
 -1         2-1.54369E+01 1.54369E+01 1.91261E+01
 -1         3-1.54369E+01 1.54369E+01-1.91261E+01
 -1         4-1.54369E+01-1.54369E+01-1.91261E+01
 -1         5 1.54369E+01-1.54369E+01 1.91261E+01
 -1         6 1.54369E+01 1.54369E+01 1.91261E+01
 -1         7 1.54369E+01 1.54369E+01-1.91261E+01
 -1         8 1.54369E+01-1.54369E+01-1.91261E+01
 -1         9 6.17478E+01-4.42821E-15-7.65045E+01
 -1        10 6.17478E+01-6.17478E+01 5.77316E-15
 -1        11 6.17478E+01 3.56779E-15 7.65045E+01
 -1        12 6.17478E+01 6.17478E+01 1.77081E-14
 -1        13-7.61546E-15 6.17478E+01-7.65045E+01
 -1        14 8.13350E-15-6.17478E+01-7.65045E+01
 -1        15 1.85851E-15-6.17478E+01 7.65045E+01
 -1        16 4.22928E-15 6.17478E+01 7.65045E+01
 -1        17-6.17478E+01 6.98676E-15-7.65045E+01
 -1        18-6.17478E+01-6.17478E+01 5.32907E-15
 -1        19-6.17478E+01 1.89502E-15 7.65045E+01
 -1        20-6.17478E+01 6.17478E+01 5.32907E-15
 -3
    1PSTEP                       730         146           1          
  100CL  246 275491.2030          20                     0  146           1
 -4  ERROR       1    1
 -5  STR(%)      1    1    0    0
 -1         1 3.73714E-14
 -1         2 3.73714E-14
 -1         3 3.73714E-14
 -1         4 3.73714E-14
 -1         5 3.73714E-14
 -1         6 3.73714E-14
 -1         7 3.73714E-14
 -1         8 3.73714E-14
 -1         9 3.73714E-14
 -1        10 3.73714E-14
 -1        11 3.73714E-14
 -1        12 3.73714E-14
 -1        13 3.73714E-14
 -1        14 3.73714E-14
 -1        15 3.73714E-14
 -1        16 3.73714E-14
 -1        17 3.73714E-14
 -1        18 3.73714E-14
 -1        19 3.73714E-14
 -1        20 3.73714E-14
 -3
    1PSTEP                       731         147           1          
  100CL  247 277806.4194          20                     0  147           1
 -4  DISP        4    1
 -5  D1          1    2    1    0
 -5  D2          1    2    2    0
 -5  D3          1    2    3    0
 -5  ALL         1    2    0    0    1ALL
 -1         1 0.00000E+00 0.00000E+00 0.00000E+00
 -1         2 0.00000E+00 0.00000E+00 0.00000E+00
 -1         3 0.00000E+00 0.00000E+00 2.00000E-03
 -1         4 0.00000E+00 0.00000E+00 2.00000E-03
 -1         5 0.00000E+00 0.00000E+00 0.00000E+00
 -1         6 0.00000E+00 0.00000E+00 0.00000E+00
 -1         7 0.00000E+00 0.00000E+00 2.00000E-03
 -1         8 0.00000E+00 0.00000E+00 2.00000E-03
 -1         9 0.00000E+00 0.00000E+00 0.00000E+00
 -1        10 0.00000E+00 0.00000E+00 1.00000E-03
 -1        11 0.00000E+00 0.00000E+00 2.00000E-03
 -1        12 0.00000E+00 0.00000E+00 1.00000E-03
 -1        13 0.00000E+00 0.00000E+00 0.00000E+00
 -1        14 0.00000E+00 0.00000E+00 0.00000E+00
 -1        15 0.00000E+00 0.00000E+00 2.00000E-03
 -1        16 0.00000E+00 0.00000E+00 2.00000E-03
 -1        17 0.00000E+00 0.00000E+00 0.00000E+00
 -1        18 0.00000E+00 0.00000E+00 1.00000E-03
 -1        19 0.00000E+00 0.00000E+00 2.00000E-03
 -1        20 0.00000E+00 0.00000E+00 1.00000E-03
 -3
    1PSTEP                       732         147           1          
  100CL  247 277806.4194          20                     0  147           1
 -4  STRESS      6    1
 -5  SXX         1    4    1    1
 -5  SYY         1    4    2    2
 -5  SZZ         1    4    3    3
 -5  SXY         1    4    1    2
 -5  SYZ         1    4    2    3
 -5  SZX         1    4    3    1
 -1         1 1.85372E+02 1.85372E+02 2.29232E+02 0.00000E+00 9.04755E-15 1.57698E-14
 -1         2 1.85372E+02 1.85372E+02 2.29232E+02 0.00000E+00-1.42297E-14-1.77354E-14
 -1         3 1.85372E+02 1.85372E+02 2.29232E+02 0.00000E+00-2.21314E-15-2.62844E-14
 -1         4 1.85372E+02 1.85372E+02 2.29232E+02 0.00000E+00-5.06305E-15 3.86279E-14
 -1         5 1.85372E+02 1.85372E+02 2.29232E+02 0.00000E+00 6.49506E-15-5.55346E-15
 -1         6 1.85372E+02 1.85372E+02 2.29232E+02 0.00000E+00-4.69008E-15 1.90100E-16
 -1         7 1.85372E+02 1.85372E+02 2.29232E+02 0.00000E+00 4.23769E-14 3.09904E-14
 -1         8 1.85372E+02 1.85372E+02 2.29232E+02 0.00000E+00-6.43661E-17-8.25717E-15
 -1         9 1.85389E+02 1.85389E+02 2.29253E+02 0.00000E+00-9.18460E-15-4.48693E-15
 -1        10 1.85389E+02 1.85389E+02 2.29253E+02 0.00000E+00 9.65851E-15 8.44885E-15
 -1        11 1.85389E+02 1.85389E+02 2.29253E+02 0.00000E+00 5.58356E-15 4.90736E-15
 -1        12 1.85389E+02 1.85389E+02 2.29253E+02 0.00000E+00 5.30894E-15 3.76741E-15
 -1        13 1.85389E+02 1.85389E+02 2.29253E+02 0.00000E+00-3.77442E-15-5.55709E-16
 -1        14 1.85389E+02 1.85389E+02 2.29253E+02 0.00000E+00 8.99519E-15 1.96091E-15
 -1        15 1.85389E+02 1.85389E+02 2.29253E+02 0.00000E+00-2.55182E-14 5.46672E-15
 -1        16 1.85389E+02 1.85389E+02 2.29253E+02 0.00000E+00 9.76266E-15 9.16696E-15
 -1        17 1.85389E+02 1.85389E+02 2.29253E+02 0.00000E+00-1.06742E-15 4.98946E-15
 -1        18 1.85389E+02 1.85389E+02 2.29253E+02 0.00000E+00 1.33667E-14-1.72193E-14
 -1        19 1.85389E+02 1.85389E+02 2.29253E+02 0.00000E+00 1.14717E-14-2.45872E-15
 -1        20 1.85389E+02 1.85389E+02 2.29253E+02 0.00000E+00 5.05404E-15 9.80228E-15
 -3
    1PSTEP                       733         147           1          
  100CL  247 277806.4194          20                     0  147           1
 -4  TOSTRAIN    6    1
 -5  EXX         1    4    1    1
 -5  EYY         1    4    2    2
 -5  EZZ         1    4    3    3
 -5  EXY         1    4    1    2
 -5  EYZ         1    4    2    3
 -5  EZX         1    4    3    1
 -1         1 0.00000E+00 0.00000E+00 1.99992E-03 0.00000E+00 4.12546E-19 7.19066E-19
 -1         2 0.00000E+00 0.00000E+00 1.99992E-03 0.00000E+00-6.48839E-19-8.08690E-19
 -1         3 0.00000E+00 0.00000E+00 1.99992E-03 0.00000E+00-1.00914E-19-1.19850E-18
 -1         4 0.00000E+00 0.00000E+00 1.99992E-03 0.00000E+00-2.30863E-19 1.76134E-18
 -1         5 0.00000E+00 0.00000E+00 1.99992E-03 0.00000E+00 2.96159E-19-2.53224E-19
 -1         6 0.00000E+00 0.00000E+00 1.99992E-03 0.00000E+00-2.13856E-19 8.66809E-21
 -1         7 0.00000E+00 0.00000E+00 1.99992E-03 0.00000E+00 1.93228E-18 1.41309E-18
 -1         8 0.00000E+00 0.00000E+00 1.99992E-03 0.00000E+00-2.93494E-21-3.76507E-19
 -1         9 0.00000E+00 0.00000E+00 2.00010E-03 0.00000E+00-4.18795E-19-2.04593E-19
 -1        10 0.00000E+00 0.00000E+00 2.00010E-03 0.00000E+00 4.40404E-19 3.85247E-19
 -1        11 0.00000E+00 0.00000E+00 2.00010E-03 0.00000E+00 2.54597E-19 2.23763E-19
 -1        12 0.00000E+00 0.00000E+00 2.00010E-03 0.00000E+00 2.42075E-19 1.71784E-19
 -1        13 0.00000E+00 0.00000E+00 2.00010E-03 0.00000E+00-1.72104E-19-2.53389E-20
 -1        14 0.00000E+00 0.00000E+00 2.00010E-03 0.00000E+00 4.10158E-19 8.94127E-20
 -1        15 0.00000E+00 0.00000E+00 2.00010E-03 0.00000E+00-1.16356E-18 2.49269E-19
 -1        16 0.00000E+00 0.00000E+00 2.00010E-03 0.00000E+00 4.45153E-19 4.17991E-19
 -1        17 0.00000E+00 0.00000E+00 2.00010E-03 0.00000E+00-4.86716E-20 2.27507E-19
 -1        18 0.00000E+00 0.00000E+00 2.00010E-03 0.00000E+00 6.09490E-19-7.85158E-19
 -1        19 0.00000E+00 0.00000E+00 2.00010E-03 0.00000E+00 5.23083E-19-1.12112E-19
 -1        20 0.00000E+00 0.00000E+00 2.00010E-03 0.00000E+00 2.30452E-19 4.46960E-19
 -3
    1PSTEP                       734         147           1          
  100CL  247 277806.4194          20                     0  147           1
 -4  FORC        4    1
 -5  F1          1    2    1    0
 -5  F2          1    2    2    0
 -5  F3          1    2    3    0
 -5  ALL         1    2    0    0    1ALL
 -1         1-1.54483E+01-1.54483E+01 1.91034E+01
 -1         2-1.54483E+01 1.54483E+01 1.91034E+01
 -1         3-1.54483E+01 1.54483E+01-1.91034E+01
 -1         4-1.54483E+01-1.54483E+01-1.91034E+01
 -1         5 1.54483E+01-1.54483E+01 1.91034E+01
 -1         6 1.54483E+01 1.54483E+01 1.91034E+01
 -1         7 1.54483E+01 1.54483E+01-1.91034E+01
 -1         8 1.54483E+01-1.54483E+01-1.91034E+01
 -1         9 6.17931E+01-8.00854E-15-7.64138E+01
 -1        10 6.17931E+01-6.17931E+01 1.08802E-14
 -1        11 6.17931E+01 2.23538E-15 7.64138E+01
 -1        12 6.17931E+01 6.17931E+01 1.92346E-14
 -1        13-4.83981E-15 6.17931E+01-7.64138E+01
 -1        14 8.13425E-15-6.17931E+01-7.64138E+01
 -1        15 7.18682E-15-6.17931E+01 7.64138E+01
 -1        16-6.42896E-15 6.17931E+01 7.64138E+01
 -1        17-6.17931E+01-1.17572E-16-7.64138E+01
 -1        18-6.17931E+01-6.17931E+01 1.77636E-15
 -1        19-6.17931E+01-1.65878E-15 7.64138E+01
 -1        20-6.17931E+01 6.17931E+01 3.77476E-15
 -3
    1PSTEP                       735         147           1          
  100CL  247 277806.4194          20                     0  147           1
 -4  ERROR       1    1
 -5  STR(%)      1    1    0    0
 -1         1 2.21958E-14
 -1         2 2.21958E-14
 -1         3 2.21958E-14
 -1         4 2.21958E-14
 -1         5 2.21958E-14
 -1         6 2.21958E-14
 -1         7 2.21958E-14
 -1         8 2.21958E-14
 -1         9 2.21958E-14
 -1        10 2.21958E-14
 -1        11 2.21958E-14
 -1        12 2.21958E-14
 -1        13 2.21958E-14
 -1        14 2.21958E-14
 -1        15 2.21958E-14
 -1        16 2.21958E-14
 -1        17 2.21958E-14
 -1        18 2.21958E-14
 -1        19 2.21958E-14
 -1        20 2.21958E-14
 -3
    1PSTEP                       736         148           1          
  100CL  248 280121.6358          20                     0  148           1
 -4  DISP        4    1
 -5  D1          1    2    1    0
 -5  D2          1    2    2    0
 -5  D3          1    2    3    0
 -5  ALL         1    2    0    0    1ALL
 -1         1 0.00000E+00 0.00000E+00 0.00000E+00
 -1         2 0.00000E+00 0.00000E+00 0.00000E+00
 -1         3 0.00000E+00 0.00000E+00 2.00000E-03
 -1         4 0.00000E+00 0.00000E+00 2.00000E-03
 -1         5 0.00000E+00 0.00000E+00 0.00000E+00
 -1         6 0.00000E+00 0.00000E+00 0.00000E+00
 -1         7 0.00000E+00 0.00000E+00 2.00000E-03
 -1         8 0.00000E+00 0.00000E+00 2.00000E-03
 -1         9 0.00000E+00 0.00000E+00 0.00000E+00
 -1        10 0.00000E+00 0.00000E+00 1.00000E-03
 -1        11 0.00000E+00 0.00000E+00 2.00000E-03
 -1        12 0.00000E+00 0.00000E+00 1.00000E-03
 -1        13 0.00000E+00 0.00000E+00 0.00000E+00
 -1        14 0.00000E+00 0.00000E+00 0.00000E+00
 -1        15 0.00000E+00 0.00000E+00 2.00000E-03
 -1        16 0.00000E+00 0.00000E+00 2.00000E-03
 -1        17 0.00000E+00 0.00000E+00 0.00000E+00
 -1        18 0.00000E+00 0.00000E+00 1.00000E-03
 -1        19 0.00000E+00 0.00000E+00 2.00000E-03
 -1        20 0.00000E+00 0.00000E+00 1.00000E-03
 -3
    1PSTEP                       737         148           1          
  100CL  248 280121.6358          20                     0  148           1
 -4  STRESS      6    1
 -5  SXX         1    4    1    1
 -5  SYY         1    4    2    2
 -5  SZZ         1    4    3    3
 -5  SXY         1    4    1    2
 -5  SYZ         1    4    2    3
 -5  SZX         1    4    3    1
 -1         1 1.85507E+02 1.85507E+02 2.28963E+02 0.00000E+00 8.96413E-15 1.56244E-14
 -1         2 1.85507E+02 1.85507E+02 2.28963E+02 0.00000E+00-1.40985E-14-1.75719E-14
 -1         3 1.85507E+02 1.85507E+02 2.28963E+02 0.00000E+00-2.19273E-15-2.60420E-14
 -1         4 1.85507E+02 1.85507E+02 2.28963E+02 0.00000E+00-5.01637E-15 3.82718E-14
 -1         5 1.85507E+02 1.85507E+02 2.28963E+02 0.00000E+00 6.43517E-15-5.50226E-15
 -1         6 1.85507E+02 1.85507E+02 2.28963E+02 0.00000E+00-4.64684E-15 1.88347E-16
 -1         7 1.85507E+02 1.85507E+02 2.28963E+02 0.00000E+00 4.19862E-14 3.07047E-14
 -1         8 1.85507E+02 1.85507E+02 2.28963E+02 0.00000E+00-6.37726E-17-8.18104E-15
 -1         9 1.85523E+02 1.85523E+02 2.28983E+02 0.00000E+00-9.09992E-15-4.44556E-15
 -1        10 1.85523E+02 1.85523E+02 2.28983E+02 0.00000E+00 9.56946E-15 8.37096E-15
 -1        11 1.85523E+02 1.85523E+02 2.28983E+02 0.00000E+00 5.53208E-15 4.86211E-15
 -1        12 1.85523E+02 1.85523E+02 2.28983E+02 0.00000E+00 5.25999E-15 3.73267E-15
 -1        13 1.85523E+02 1.85523E+02 2.28983E+02 0.00000E+00-3.73962E-15-5.50585E-16
 -1        14 1.85523E+02 1.85523E+02 2.28983E+02 0.00000E+00 8.91226E-15 1.94283E-15
 -1        15 1.85523E+02 1.85523E+02 2.28983E+02 0.00000E+00-2.52829E-14 5.41632E-15
 -1        16 1.85523E+02 1.85523E+02 2.28983E+02 0.00000E+00 9.67264E-15 9.08244E-15
 -1        17 1.85523E+02 1.85523E+02 2.28983E+02 0.00000E+00-1.05758E-15 4.94346E-15
 -1        18 1.85523E+02 1.85523E+02 2.28983E+02 0.00000E+00 1.32435E-14-1.70606E-14
 -1        19 1.85523E+02 1.85523E+02 2.28983E+02 0.00000E+00 1.13660E-14-2.43605E-15
 -1        20 1.85523E+02 1.85523E+02 2.28983E+02 0.00000E+00 5.00744E-15 9.71191E-15
 -3
    1PSTEP                       738         148           1          
  100CL  248 280121.6358          20                     0  148           1
 -4  TOSTRAIN    6    1
 -5  EXX         1    4    1    1
 -5  EYY         1    4    2    2
 -5  EZZ         1    4    3    3
 -5  EXY         1    4    1    2
 -5  EYZ         1    4    2    3
 -5  EZX         1    4    3    1
 -1         1 0.00000E+00 0.00000E+00 1.99992E-03 0.00000E+00 4.12546E-19 7.19066E-19
 -1         2 0.00000E+00 0.00000E+00 1.99992E-03 0.00000E+00-6.48839E-19-8.08690E-19
 -1         3 0.00000E+00 0.00000E+00 1.99992E-03 0.00000E+00-1.00914E-19-1.19850E-18
 -1         4 0.00000E+00 0.00000E+00 1.99992E-03 0.00000E+00-2.30863E-19 1.76134E-18
 -1         5 0.00000E+00 0.00000E+00 1.99992E-03 0.00000E+00 2.96159E-19-2.53224E-19
 -1         6 0.00000E+00 0.00000E+00 1.99992E-03 0.00000E+00-2.13856E-19 8.66809E-21
 -1         7 0.00000E+00 0.00000E+00 1.99992E-03 0.00000E+00 1.93228E-18 1.41309E-18
 -1         8 0.00000E+00 0.00000E+00 1.99992E-03 0.00000E+00-2.93494E-21-3.76507E-19
 -1         9 0.00000E+00 0.00000E+00 2.00010E-03 0.00000E+00-4.18795E-19-2.04593E-19
 -1        10 0.00000E+00 0.00000E+00 2.00010E-03 0.00000E+00 4.40404E-19 3.85247E-19
 -1        11 0.00000E+00 0.00000E+00 2.00010E-03 0.00000E+00 2.54597E-19 2.23763E-19
 -1        12 0.00000E+00 0.00000E+00 2.00010E-03 0.00000E+00 2.42075E-19 1.71784E-19
 -1        13 0.00000E+00 0.00000E+00 2.00010E-03 0.00000E+00-1.72104E-19-2.53389E-20
 -1        14 0.00000E+00 0.00000E+00 2.00010E-03 0.00000E+00 4.10158E-19 8.94127E-20
 -1        15 0.00000E+00 0.00000E+00 2.00010E-03 0.00000E+00-1.16356E-18 2.49269E-19
 -1        16 0.00000E+00 0.00000E+00 2.00010E-03 0.00000E+00 4.45153E-19 4.17991E-19
 -1        17 0.00000E+00 0.00000E+00 2.00010E-03 0.00000E+00-4.86716E-20 2.27507E-19
 -1        18 0.00000E+00 0.00000E+00 2.00010E-03 0.00000E+00 6.09490E-19-7.85158E-19
 -1        19 0.00000E+00 0.00000E+00 2.00010E-03 0.00000E+00 5.23083E-19-1.12112E-19
 -1        20 0.00000E+00 0.00000E+00 2.00010E-03 0.00000E+00 2.30452E-19 4.46960E-19
 -3
    1PSTEP                       739         148           1          
  100CL  248 280121.6358          20                     0  148           1
 -4  FORC        4    1
 -5  F1          1    2    1    0
 -5  F2          1    2    2    0
 -5  F3          1    2    3    0
 -5  ALL         1    2    0    0    1ALL
 -1         1-1.54595E+01-1.54595E+01 1.90810E+01
 -1         2-1.54595E+01 1.54595E+01 1.90810E+01
 -1         3-1.54595E+01 1.54595E+01-1.90810E+01
 -1         4-1.54595E+01-1.54595E+01-1.90810E+01
 -1         5 1.54595E+01-1.54595E+01 1.90810E+01
 -1         6 1.54595E+01 1.54595E+01 1.90810E+01
 -1         7 1.54595E+01 1.54595E+01-1.90810E+01
 -1         8 1.54595E+01-1.54595E+01-1.90810E+01
 -1         9 6.18380E+01-5.53816E-15-7.63239E+01
 -1        10 6.18380E+01-6.18380E+01-1.77636E-15
 -1        11 6.18380E+01 7.56431E-15 7.63239E+01
 -1        12 6.18380E+01 6.18380E+01 1.73472E-14
 -1        13-7.25445E-15 6.18380E+01-7.63239E+01
 -1        14 4.36025E-15-6.18380E+01-7.63239E+01
 -1        15 5.40972E-15-6.18380E+01 7.63239E+01
 -1        16 6.76377E-16 6.18380E+01 7.63239E+01
 -1        17-6.18380E+01 5.21258E-15-7.63239E+01
 -1        18-6.18380E+01-6.18380E+01 0.00000E+00
 -1        19-6.18380E+01 5.44556E-15 7.63239E+01
 -1        20-6.18380E+01 6.18380E+01 0.00000E+00
 -3
    1PSTEP                       740         148           1          
  100CL  248 280121.6358          20                     0  148           1
 -4  ERROR       1    1
 -5  STR(%)      1    1    0    0
 -1         1 2.73012E-14
 -1         2 2.73012E-14
 -1         3 2.73012E-14
 -1         4 2.73012E-14
 -1         5 2.73012E-14
 -1         6 2.73012E-14
 -1         7 2.73012E-14
 -1         8 2.73012E-14
 -1         9 2.73012E-14
 -1        10 2.73012E-14
 -1        11 2.73012E-14
 -1        12 2.73012E-14
 -1        13 2.73012E-14
 -1        14 2.73012E-14
 -1        15 2.73012E-14
 -1        16 2.73012E-14
 -1        17 2.73012E-14
 -1        18 2.73012E-14
 -1        19 2.73012E-14
 -1        20 2.73012E-14
 -3
    1PSTEP                       741         149           1          
  100CL  249 283594.4604          20                     0  149           1
 -4  DISP        4    1
 -5  D1          1    2    1    0
 -5  D2          1    2    2    0
 -5  D3          1    2    3    0
 -5  ALL         1    2    0    0    1ALL
 -1         1 0.00000E+00 0.00000E+00 0.00000E+00
 -1         2 0.00000E+00 0.00000E+00 0.00000E+00
 -1         3 0.00000E+00 0.00000E+00 2.00000E-03
 -1         4 0.00000E+00 0.00000E+00 2.00000E-03
 -1         5 0.00000E+00 0.00000E+00 0.00000E+00
 -1         6 0.00000E+00 0.00000E+00 0.00000E+00
 -1         7 0.00000E+00 0.00000E+00 2.00000E-03
 -1         8 0.00000E+00 0.00000E+00 2.00000E-03
 -1         9 0.00000E+00 0.00000E+00 0.00000E+00
 -1        10 0.00000E+00 0.00000E+00 1.00000E-03
 -1        11 0.00000E+00 0.00000E+00 2.00000E-03
 -1        12 0.00000E+00 0.00000E+00 1.00000E-03
 -1        13 0.00000E+00 0.00000E+00 0.00000E+00
 -1        14 0.00000E+00 0.00000E+00 0.00000E+00
 -1        15 0.00000E+00 0.00000E+00 2.00000E-03
 -1        16 0.00000E+00 0.00000E+00 2.00000E-03
 -1        17 0.00000E+00 0.00000E+00 0.00000E+00
 -1        18 0.00000E+00 0.00000E+00 1.00000E-03
 -1        19 0.00000E+00 0.00000E+00 2.00000E-03
 -1        20 0.00000E+00 0.00000E+00 1.00000E-03
 -3
    1PSTEP                       742         149           1          
  100CL  249 283594.4604          20                     0  149           1
 -4  STRESS      6    1
 -5  SXX         1    4    1    1
 -5  SYY         1    4    2    2
 -5  SZZ         1    4    3    3
 -5  SXY         1    4    1    2
 -5  SYZ         1    4    2    3
 -5  SZX         1    4    3    1
 -1         1 1.85706E+02 1.85706E+02 2.28564E+02 0.00000E+00 8.84073E-15 1.54093E-14
 -1         2 1.85706E+02 1.85706E+02 2.28564E+02 0.00000E+00-1.39044E-14-1.73300E-14
 -1         3 1.85706E+02 1.85706E+02 2.28564E+02 0.00000E+00-2.16255E-15-2.56835E-14
 -1         4 1.85706E+02 1.85706E+02 2.28564E+02 0.00000E+00-4.94731E-15 3.77449E-14
 -1         5 1.85706E+02 1.85706E+02 2.28564E+02 0.00000E+00 6.34658E-15-5.42651E-15
 -1         6 1.85706E+02 1.85706E+02 2.28564E+02 0.00000E+00-4.58287E-15 1.85754E-16
 -1         7 1.85706E+02 1.85706E+02 2.28564E+02 0.00000E+00 4.14082E-14 3.02820E-14
 -1         8 1.85706E+02 1.85706E+02 2.28564E+02 0.00000E+00-6.28947E-17-8.06842E-15
 -1         9 1.85723E+02 1.85723E+02 2.28584E+02 0.00000E+00-8.97464E-15-4.38436E-15
 -1        10 1.85723E+02 1.85723E+02 2.28584E+02 0.00000E+00 9.43772E-15 8.25572E-15
 -1        11 1.85723E+02 1.85723E+02 2.28584E+02 0.00000E+00 5.45592E-15 4.79518E-15
 -1        12 1.85723E+02 1.85723E+02 2.28584E+02 0.00000E+00 5.18758E-15 3.68129E-15
 -1        13 1.85723E+02 1.85723E+02 2.28584E+02 0.00000E+00-3.68814E-15-5.43006E-16
 -1        14 1.85723E+02 1.85723E+02 2.28584E+02 0.00000E+00 8.78956E-15 1.91609E-15
 -1        15 1.85723E+02 1.85723E+02 2.28584E+02 0.00000E+00-2.49348E-14 5.34175E-15
 -1        16 1.85723E+02 1.85723E+02 2.28584E+02 0.00000E+00 9.53949E-15 8.95741E-15
 -1        17 1.85723E+02 1.85723E+02 2.28584E+02 0.00000E+00-1.04302E-15 4.87540E-15
 -1        18 1.85723E+02 1.85723E+02 2.28584E+02 0.00000E+00 1.30612E-14-1.68257E-14
 -1        19 1.85723E+02 1.85723E+02 2.28584E+02 0.00000E+00 1.12095E-14-2.40252E-15
 -1        20 1.85723E+02 1.85723E+02 2.28584E+02 0.00000E+00 4.93850E-15 9.57821E-15
 -3
    1PSTEP                       743         149           1          
  100CL  249 283594.4604          20                     0  149           1
 -4  TOSTRAIN    6    1
 -5  EXX         1    4    1    1
 -5  EYY         1    4    2    2
 -5  EZZ         1    4    3    3
 -5  EXY         1    4    1    2
 -5  EYZ         1    4    2    3
 -5  EZX         1    4    3    1
 -1         1 0.00000E+00 0.00000E+00 1.99992E-03 0.00000E+00 4.12546E-19 7.19066E-19
 -1         2 0.00000E+00 0.00000E+00 1.99992E-03 0.00000E+00-6.48839E-19-8.08690E-19
 -1         3 0.00000E+00 0.00000E+00 1.99992E-03 0.00000E+00-1.00914E-19-1.19850E-18
 -1         4 0.00000E+00 0.00000E+00 1.99992E-03 0.00000E+00-2.30863E-19 1.76134E-18
 -1         5 0.00000E+00 0.00000E+00 1.99992E-03 0.00000E+00 2.96159E-19-2.53224E-19
 -1         6 0.00000E+00 0.00000E+00 1.99992E-03 0.00000E+00-2.13856E-19 8.66809E-21
 -1         7 0.00000E+00 0.00000E+00 1.99992E-03 0.00000E+00 1.93228E-18 1.41309E-18
 -1         8 0.00000E+00 0.00000E+00 1.99992E-03 0.00000E+00-2.93494E-21-3.76507E-19
 -1         9 0.00000E+00 0.00000E+00 2.00010E-03 0.00000E+00-4.18795E-19-2.04593E-19
 -1        10 0.00000E+00 0.00000E+00 2.00010E-03 0.00000E+00 4.40404E-19 3.85247E-19
 -1        11 0.00000E+00 0.00000E+00 2.00010E-03 0.00000E+00 2.54597E-19 2.23763E-19
 -1        12 0.00000E+00 0.00000E+00 2.00010E-03 0.00000E+00 2.42075E-19 1.71784E-19
 -1        13 0.00000E+00 0.00000E+00 2.00010E-03 0.00000E+00-1.72104E-19-2.53389E-20
 -1        14 0.00000E+00 0.00000E+00 2.00010E-03 0.00000E+00 4.10158E-19 8.94127E-20
 -1        15 0.00000E+00 0.00000E+00 2.00010E-03 0.00000E+00-1.16356E-18 2.49269E-19
 -1        16 0.00000E+00 0.00000E+00 2.00010E-03 0.00000E+00 4.45153E-19 4.17991E-19
 -1        17 0.00000E+00 0.00000E+00 2.00010E-03 0.00000E+00-4.86716E-20 2.27507E-19
 -1        18 0.00000E+00 0.00000E+00 2.00010E-03 0.00000E+00 6.09490E-19-7.85158E-19
 -1        19 0.00000E+00 0.00000E+00 2.00010E-03 0.00000E+00 5.23083E-19-1.12112E-19
 -1        20 0.00000E+00 0.00000E+00 2.00010E-03 0.00000E+00 2.30452E-19 4.46960E-19
 -3
    1PSTEP                       744         149           1          
  100CL  249 283594.4604          20                     0  149           1
 -4  FORC        4    1
 -5  F1          1    2    1    0
 -5  F2          1    2    2    0
 -5  F3          1    2    3    0
 -5  ALL         1    2    0    0    1ALL
 -1         1-1.54761E+01-1.54761E+01 1.90477E+01
 -1         2-1.54761E+01 1.54761E+01 1.90477E+01
 -1         3-1.54761E+01 1.54761E+01-1.90477E+01
 -1         4-1.54761E+01-1.54761E+01-1.90477E+01
 -1         5 1.54761E+01-1.54761E+01 1.90477E+01
 -1         6 1.54761E+01 1.54761E+01 1.90477E+01
 -1         7 1.54761E+01 1.54761E+01-1.90477E+01
 -1         8 1.54761E+01-1.54761E+01-1.90477E+01
 -1         9 6.19045E+01-6.42613E-15-7.61910E+01
 -1        10 6.19045E+01-6.19045E+01 8.88178E-15
 -1        11 6.19045E+01 3.78935E-15 7.61910E+01
 -1        12 6.19045E+01 6.19045E+01 2.97817E-14
 -1        13-1.11401E-14 6.19045E+01-7.61910E+01
 -1        14 5.47158E-15-6.19045E+01-7.61910E+01
 -1        15-1.69682E-15-6.19045E+01 7.61910E+01
 -1        16-1.54421E-15 6.19045E+01 7.61910E+01
 -1        17-6.19045E+01 5.21419E-15-7.61910E+01
 -1        18-6.19045E+01-6.19045E+01 1.77636E-15
 -1        19-6.19045E+01 1.89124E-15 7.61910E+01
 -1        20-6.19045E+01 6.19045E+01 4.66294E-15
 -3
    1PSTEP                       745         149           1          
  100CL  249 283594.4604          20                     0  149           1
 -4  ERROR       1    1
 -5  STR(%)      1    1    0    0
 -1         1 4.45214E-14
 -1         2 4.45214E-14
 -1         3 4.45214E-14
 -1         4 4.45214E-14
 -1         5 4.45214E-14
 -1         6 4.45214E-14
 -1         7 4.45214E-14
 -1         8 4.45214E-14
 -1         9 4.45214E-14
 -1        10 4.45214E-14
 -1        11 4.45214E-14
 -1        12 4.45214E-14
 -1        13 4.45214E-14
 -1        14 4.45214E-14
 -1        15 4.45214E-14
 -1        16 4.45214E-14
 -1        17 4.45214E-14
 -1        18 4.45214E-14
 -1        19 4.45214E-14
 -1        20 4.45214E-14
 -3
    1PSTEP                       746         150           1          
  100CL  250 286000.3522          20                     0  150           1
 -4  DISP        4    1
 -5  D1          1    2    1    0
 -5  D2          1    2    2    0
 -5  D3          1    2    3    0
 -5  ALL         1    2    0    0    1ALL
 -1         1 0.00000E+00 0.00000E+00 0.00000E+00
 -1         2 0.00000E+00 0.00000E+00 0.00000E+00
 -1         3 0.00000E+00 0.00000E+00 2.00000E-03
 -1         4 0.00000E+00 0.00000E+00 2.00000E-03
 -1         5 0.00000E+00 0.00000E+00 0.00000E+00
 -1         6 0.00000E+00 0.00000E+00 0.00000E+00
 -1         7 0.00000E+00 0.00000E+00 2.00000E-03
 -1         8 0.00000E+00 0.00000E+00 2.00000E-03
 -1         9 0.00000E+00 0.00000E+00 0.00000E+00
 -1        10 0.00000E+00 0.00000E+00 1.00000E-03
 -1        11 0.00000E+00 0.00000E+00 2.00000E-03
 -1        12 0.00000E+00 0.00000E+00 1.00000E-03
 -1        13 0.00000E+00 0.00000E+00 0.00000E+00
 -1        14 0.00000E+00 0.00000E+00 0.00000E+00
 -1        15 0.00000E+00 0.00000E+00 2.00000E-03
 -1        16 0.00000E+00 0.00000E+00 2.00000E-03
 -1        17 0.00000E+00 0.00000E+00 0.00000E+00
 -1        18 0.00000E+00 0.00000E+00 1.00000E-03
 -1        19 0.00000E+00 0.00000E+00 2.00000E-03
 -1        20 0.00000E+00 0.00000E+00 1.00000E-03
 -3
    1PSTEP                       747         150           1          
  100CL  250 286000.3522          20                     0  150           1
 -4  STRESS      6    1
 -5  SXX         1    4    1    1
 -5  SYY         1    4    2    2
 -5  SZZ         1    4    3    3
 -5  SXY         1    4    1    2
 -5  SYZ         1    4    2    3
 -5  SZX         1    4    3    1
 -1         1 1.85843E+02 1.85843E+02 2.28290E+02 0.00000E+00 8.75605E-15 1.52618E-14
 -1         2 1.85843E+02 1.85843E+02 2.28290E+02 0.00000E+00-1.37712E-14-1.71640E-14
 -1         3 1.85843E+02 1.85843E+02 2.28290E+02 0.00000E+00-2.14184E-15-2.54375E-14
 -1         4 1.85843E+02 1.85843E+02 2.28290E+02 0.00000E+00-4.89993E-15 3.73834E-14
 -1         5 1.85843E+02 1.85843E+02 2.28290E+02 0.00000E+00 6.28580E-15-5.37454E-15
 -1         6 1.85843E+02 1.85843E+02 2.28290E+02 0.00000E+00-4.53898E-15 1.83975E-16
 -1         7 1.85843E+02 1.85843E+02 2.28290E+02 0.00000E+00 4.10116E-14 2.99919E-14
 -1         8 1.85843E+02 1.85843E+02 2.28290E+02 0.00000E+00-6.22923E-17-7.99114E-15
 -1         9 1.85860E+02 1.85860E+02 2.28311E+02 0.00000E+00-8.88869E-15-4.34237E-15
 -1        10 1.85860E+02 1.85860E+02 2.28311E+02 0.00000E+00 9.34733E-15 8.17665E-15
 -1        11 1.85860E+02 1.85860E+02 2.28311E+02 0.00000E+00 5.40367E-15 4.74925E-15
 -1        12 1.85860E+02 1.85860E+02 2.28311E+02 0.00000E+00 5.13790E-15 3.64603E-15
 -1        13 1.85860E+02 1.85860E+02 2.28311E+02 0.00000E+00-3.65281E-15-5.37805E-16
 -1        14 1.85860E+02 1.85860E+02 2.28311E+02 0.00000E+00 8.70538E-15 1.89773E-15
 -1        15 1.85860E+02 1.85860E+02 2.28311E+02 0.00000E+00-2.46960E-14 5.29059E-15
 -1        16 1.85860E+02 1.85860E+02 2.28311E+02 0.00000E+00 9.44812E-15 8.87162E-15
 -1        17 1.85860E+02 1.85860E+02 2.28311E+02 0.00000E+00-1.03303E-15 4.82871E-15
 -1        18 1.85860E+02 1.85860E+02 2.28311E+02 0.00000E+00 1.29361E-14-1.66645E-14
 -1        19 1.85860E+02 1.85860E+02 2.28311E+02 0.00000E+00 1.11021E-14-2.37951E-15
 -1        20 1.85860E+02 1.85860E+02 2.28311E+02 0.00000E+00 4.89120E-15 9.48647E-15
 -3
    1PSTEP                       748         150           1          
  100CL  250 286000.3522          20                     0  150           1
 -4  TOSTRAIN    6    1
 -5  EXX         1    4    1    1
 -5  EYY         1    4    2    2
 -5  EZZ         1    4    3    3
 -5  EXY         1    4    1    2
 -5  EYZ         1    4    2    3
 -5  EZX         1    4    3    1
 -1         1 0.00000E+00 0.00000E+00 1.99992E-03 0.00000E+00 4.12546E-19 7.19066E-19
 -1         2 0.00000E+00 0.00000E+00 1.99992E-03 0.00000E+00-6.48839E-19-8.08690E-19
 -1         3 0.00000E+00 0.00000E+00 1.99992E-03 0.00000E+00-1.00914E-19-1.19850E-18
 -1         4 0.00000E+00 0.00000E+00 1.99992E-03 0.00000E+00-2.30863E-19 1.76134E-18
 -1         5 0.00000E+00 0.00000E+00 1.99992E-03 0.00000E+00 2.96159E-19-2.53224E-19
 -1         6 0.00000E+00 0.00000E+00 1.99992E-03 0.00000E+00-2.13856E-19 8.66809E-21
 -1         7 0.00000E+00 0.00000E+00 1.99992E-03 0.00000E+00 1.93228E-18 1.41309E-18
 -1         8 0.00000E+00 0.00000E+00 1.99992E-03 0.00000E+00-2.93494E-21-3.76507E-19
 -1         9 0.00000E+00 0.00000E+00 2.00010E-03 0.00000E+00-4.18795E-19-2.04593E-19
 -1        10 0.00000E+00 0.00000E+00 2.00010E-03 0.00000E+00 4.40404E-19 3.85247E-19
 -1        11 0.00000E+00 0.00000E+00 2.00010E-03 0.00000E+00 2.54597E-19 2.23763E-19
 -1        12 0.00000E+00 0.00000E+00 2.00010E-03 0.00000E+00 2.42075E-19 1.71784E-19
 -1        13 0.00000E+00 0.00000E+00 2.00010E-03 0.00000E+00-1.72104E-19-2.53389E-20
 -1        14 0.00000E+00 0.00000E+00 2.00010E-03 0.00000E+00 4.10158E-19 8.94127E-20
 -1        15 0.00000E+00 0.00000E+00 2.00010E-03 0.00000E+00-1.16356E-18 2.49269E-19
 -1        16 0.00000E+00 0.00000E+00 2.00010E-03 0.00000E+00 4.45153E-19 4.17991E-19
 -1        17 0.00000E+00 0.00000E+00 2.00010E-03 0.00000E+00-4.86716E-20 2.27507E-19
 -1        18 0.00000E+00 0.00000E+00 2.00010E-03 0.00000E+00 6.09490E-19-7.85158E-19
 -1        19 0.00000E+00 0.00000E+00 2.00010E-03 0.00000E+00 5.23083E-19-1.12112E-19
 -1        20 0.00000E+00 0.00000E+00 2.00010E-03 0.00000E+00 2.30452E-19 4.46960E-19
 -3
    1PSTEP                       749         150           1          
  100CL  250 286000.3522          20                     0  150           1
 -4  FORC        4    1
 -5  F1          1    2    1    0
 -5  F2          1    2    2    0
 -5  F3          1    2    3    0
 -5  ALL         1    2    0    0    1ALL
 -1         1-1.54875E+01-1.54875E+01 1.90249E+01
 -1         2-1.54875E+01 1.54875E+01 1.90249E+01
 -1         3-1.54875E+01 1.54875E+01-1.90249E+01
 -1         4-1.54875E+01-1.54875E+01-1.90249E+01
 -1         5 1.54875E+01-1.54875E+01 1.90249E+01
 -1         6 1.54875E+01 1.54875E+01 1.90249E+01
 -1         7 1.54875E+01 1.54875E+01-1.90249E+01
 -1         8 1.54875E+01-1.54875E+01-1.90249E+01
 -1         9 6.19501E+01-8.42439E-15-7.60997E+01
 -1        10 6.19501E+01-6.19501E+01 5.32907E-15
 -1        11 6.19501E+01 2.36497E-16 7.60997E+01
 -1        12 6.19501E+01 6.19501E+01 1.80689E-14
 -1        13-7.22645E-15 6.19501E+01-7.60997E+01
 -1        14 5.47234E-15-6.19501E+01-7.60997E+01
 -1        15 1.85513E-15-6.19501E+01 7.60997E+01
 -1        16-2.43249E-15 6.19501E+01 7.60997E+01
 -1        17-6.19501E+01 1.44053E-15-7.60997E+01
 -1        18-6.19501E+01-6.19501E+01 3.55271E-15
 -1        19-6.19501E+01 1.13784E-16 7.60997E+01
 -1        20-6.19501E+01 6.19501E+01 1.11022E-15
 -3
    1PSTEP                       750         150           1          
  100CL  250 286000.3522          20                     0  150           1
 -4  ERROR       1    1
 -5  STR(%)      1    1    0    0
 -1         1 2.29242E-14
 -1         2 2.29242E-14
 -1         3 2.29242E-14
 -1         4 2.29242E-14
 -1         5 2.29242E-14
 -1         6 2.29242E-14
 -1         7 2.29242E-14
 -1         8 2.29242E-14
 -1         9 2.29242E-14
 -1        10 2.29242E-14
 -1        11 2.29242E-14
 -1        12 2.29242E-14
 -1        13 2.29242E-14
 -1        14 2.29242E-14
 -1        15 2.29242E-14
 -1        16 2.29242E-14
 -1        17 2.29242E-14
 -1        18 2.29242E-14
 -1        19 2.29242E-14
 -1        20 2.29242E-14
 -3
    1PSTEP                       751         151           1          
  100CL  251 288406.2440          20                     0  151           1
 -4  DISP        4    1
 -5  D1          1    2    1    0
 -5  D2          1    2    2    0
 -5  D3          1    2    3    0
 -5  ALL         1    2    0    0    1ALL
 -1         1 0.00000E+00 0.00000E+00 0.00000E+00
 -1         2 0.00000E+00 0.00000E+00 0.00000E+00
 -1         3 0.00000E+00 0.00000E+00 2.00000E-03
 -1         4 0.00000E+00 0.00000E+00 2.00000E-03
 -1         5 0.00000E+00 0.00000E+00 0.00000E+00
 -1         6 0.00000E+00 0.00000E+00 0.00000E+00
 -1         7 0.00000E+00 0.00000E+00 2.00000E-03
 -1         8 0.00000E+00 0.00000E+00 2.00000E-03
 -1         9 0.00000E+00 0.00000E+00 0.00000E+00
 -1        10 0.00000E+00 0.00000E+00 1.00000E-03
 -1        11 0.00000E+00 0.00000E+00 2.00000E-03
 -1        12 0.00000E+00 0.00000E+00 1.00000E-03
 -1        13 0.00000E+00 0.00000E+00 0.00000E+00
 -1        14 0.00000E+00 0.00000E+00 0.00000E+00
 -1        15 0.00000E+00 0.00000E+00 2.00000E-03
 -1        16 0.00000E+00 0.00000E+00 2.00000E-03
 -1        17 0.00000E+00 0.00000E+00 0.00000E+00
 -1        18 0.00000E+00 0.00000E+00 1.00000E-03
 -1        19 0.00000E+00 0.00000E+00 2.00000E-03
 -1        20 0.00000E+00 0.00000E+00 1.00000E-03
 -3
    1PSTEP                       752         151           1          
  100CL  251 288406.2440          20                     0  151           1
 -4  STRESS      6    1
 -5  SXX         1    4    1    1
 -5  SYY         1    4    2    2
 -5  SZZ         1    4    3    3
 -5  SXY         1    4    1    2
 -5  SYZ         1    4    2    3
 -5  SZX         1    4    3    1
 -1         1 1.85978E+02 1.85978E+02 2.28019E+02 0.00000E+00 8.67219E-15 1.51156E-14
 -1         2 1.85978E+02 1.85978E+02 2.28019E+02 0.00000E+00-1.36393E-14-1.69996E-14
 -1         3 1.85978E+02 1.85978E+02 2.28019E+02 0.00000E+00-2.12132E-15-2.51939E-14
 -1         4 1.85978E+02 1.85978E+02 2.28019E+02 0.00000E+00-4.85300E-15 3.70253E-14
 -1         5 1.85978E+02 1.85978E+02 2.28019E+02 0.00000E+00 6.22559E-15-5.32306E-15
 -1         6 1.85978E+02 1.85978E+02 2.28019E+02 0.00000E+00-4.49550E-15 1.82213E-16
 -1         7 1.85978E+02 1.85978E+02 2.28019E+02 0.00000E+00 4.06188E-14 2.97047E-14
 -1         8 1.85978E+02 1.85978E+02 2.28019E+02 0.00000E+00-6.16957E-17-7.91460E-15
 -1         9 1.85995E+02 1.85995E+02 2.28040E+02 0.00000E+00-8.80356E-15-4.30078E-15
 -1        10 1.85995E+02 1.85995E+02 2.28040E+02 0.00000E+00 9.25781E-15 8.09833E-15
 -1        11 1.85995E+02 1.85995E+02 2.28040E+02 0.00000E+00 5.35191E-15 4.70376E-15
 -1        12 1.85995E+02 1.85995E+02 2.28040E+02 0.00000E+00 5.08869E-15 3.61111E-15
 -1        13 1.85995E+02 1.85995E+02 2.28040E+02 0.00000E+00-3.61783E-15-5.32654E-16
 -1        14 1.85995E+02 1.85995E+02 2.28040E+02 0.00000E+00 8.62200E-15 1.87956E-15
 -1        15 1.85995E+02 1.85995E+02 2.28040E+02 0.00000E+00-2.44595E-14 5.23992E-15
 -1        16 1.85995E+02 1.85995E+02 2.28040E+02 0.00000E+00 9.35763E-15 8.78665E-15
 -1        17 1.85995E+02 1.85995E+02 2.28040E+02 0.00000E+00-1.02313E-15 4.78246E-15
 -1        18 1.85995E+02 1.85995E+02 2.28040E+02 0.00000E+00 1.28122E-14-1.65049E-14
 -1        19 1.85995E+02 1.85995E+02 2.28040E+02 0.00000E+00 1.09958E-14-2.35672E-15
 -1        20 1.85995E+02 1.85995E+02 2.28040E+02 0.00000E+00 4.84436E-15 9.39561E-15
 -3
    1PSTEP                       753         151           1          
  100CL  251 288406.2440          20                     0  151           1
 -4  TOSTRAIN    6    1
 -5  EXX         1    4    1    1
 -5  EYY         1    4    2    2
 -5  EZZ         1    4    3    3
 -5  EXY         1    4    1    2
 -5  EYZ         1    4    2    3
 -5  EZX         1    4    3    1
 -1         1 0.00000E+00 0.00000E+00 1.99992E-03 0.00000E+00 4.12546E-19 7.19066E-19
 -1         2 0.00000E+00 0.00000E+00 1.99992E-03 0.00000E+00-6.48839E-19-8.08690E-19
 -1         3 0.00000E+00 0.00000E+00 1.99992E-03 0.00000E+00-1.00914E-19-1.19850E-18
 -1         4 0.00000E+00 0.00000E+00 1.99992E-03 0.00000E+00-2.30863E-19 1.76134E-18
 -1         5 0.00000E+00 0.00000E+00 1.99992E-03 0.00000E+00 2.96159E-19-2.53224E-19
 -1         6 0.00000E+00 0.00000E+00 1.99992E-03 0.00000E+00-2.13856E-19 8.66809E-21
 -1         7 0.00000E+00 0.00000E+00 1.99992E-03 0.00000E+00 1.93228E-18 1.41309E-18
 -1         8 0.00000E+00 0.00000E+00 1.99992E-03 0.00000E+00-2.93494E-21-3.76507E-19
 -1         9 0.00000E+00 0.00000E+00 2.00010E-03 0.00000E+00-4.18795E-19-2.04593E-19
 -1        10 0.00000E+00 0.00000E+00 2.00010E-03 0.00000E+00 4.40404E-19 3.85247E-19
 -1        11 0.00000E+00 0.00000E+00 2.00010E-03 0.00000E+00 2.54597E-19 2.23763E-19
 -1        12 0.00000E+00 0.00000E+00 2.00010E-03 0.00000E+00 2.42075E-19 1.71784E-19
 -1        13 0.00000E+00 0.00000E+00 2.00010E-03 0.00000E+00-1.72104E-19-2.53389E-20
 -1        14 0.00000E+00 0.00000E+00 2.00010E-03 0.00000E+00 4.10158E-19 8.94127E-20
 -1        15 0.00000E+00 0.00000E+00 2.00010E-03 0.00000E+00-1.16356E-18 2.49269E-19
 -1        16 0.00000E+00 0.00000E+00 2.00010E-03 0.00000E+00 4.45153E-19 4.17991E-19
 -1        17 0.00000E+00 0.00000E+00 2.00010E-03 0.00000E+00-4.86716E-20 2.27507E-19
 -1        18 0.00000E+00 0.00000E+00 2.00010E-03 0.00000E+00 6.09490E-19-7.85158E-19
 -1        19 0.00000E+00 0.00000E+00 2.00010E-03 0.00000E+00 5.23083E-19-1.12112E-19
 -1        20 0.00000E+00 0.00000E+00 2.00010E-03 0.00000E+00 2.30452E-19 4.46960E-19
 -3
    1PSTEP                       754         151           1          
  100CL  251 288406.2440          20                     0  151           1
 -4  FORC        4    1
 -5  F1          1    2    1    0
 -5  F2          1    2    2    0
 -5  F3          1    2    3    0
 -5  ALL         1    2    0    0    1ALL
 -1         1-1.54988E+01-1.54988E+01 1.90023E+01
 -1         2-1.54988E+01 1.54988E+01 1.90023E+01
 -1         3-1.54988E+01 1.54988E+01-1.90023E+01
 -1         4-1.54988E+01-1.54988E+01-1.90023E+01
 -1         5 1.54988E+01-1.54988E+01 1.90023E+01
 -1         6 1.54988E+01 1.54988E+01 1.90023E+01
 -1         7 1.54988E+01 1.54988E+01-1.90023E+01
 -1         8 1.54988E+01-1.54988E+01-1.90023E+01
 -1         9 6.19953E+01-2.67885E-15-7.60094E+01
 -1        10 6.19953E+01-6.19953E+01 3.55271E-15
 -1        11 6.19953E+01 1.79067E-15 7.60094E+01
 -1        12 6.19953E+01 6.19953E+01 1.60427E-14
 -1        13 4.34179E-16 6.19953E+01-7.60094E+01
 -1        14 1.74635E-14-6.19953E+01-7.60094E+01
 -1        15-3.47469E-15-6.19953E+01 7.60094E+01
 -1        16-1.54440E-15 6.19953E+01 7.60094E+01
 -1        17-6.19953E+01 4.99433E-15-7.60094E+01
 -1        18-6.19953E+01-6.19953E+01 0.00000E+00
 -1        19-6.19953E+01 3.66541E-15 7.60094E+01
 -1        20-6.19953E+01 6.19953E+01 8.88178E-16
 -3
    1PSTEP                       755         151           1          
  100CL  251 288406.2440          20                     0  151           1
 -4  ERROR       1    1
 -5  STR(%)      1    1    0    0
 -1         1 1.08382E-14
 -1         2 1.08382E-14
 -1         3 1.08382E-14
 -1         4 1.08382E-14
 -1         5 1.08382E-14
 -1         6 1.08382E-14
 -1         7 1.08382E-14
 -1         8 1.08382E-14
 -1         9 1.08382E-14
 -1        10 1.08382E-14
 -1        11 1.08382E-14
 -1        12 1.08382E-14
 -1        13 1.08382E-14
 -1        14 1.08382E-14
 -1        15 1.08382E-14
 -1        16 1.08382E-14
 -1        17 1.08382E-14
 -1        18 1.08382E-14
 -1        19 1.08382E-14
 -1        20 1.08382E-14
 -3
    1PSTEP                       756         152           1          
  100CL  252 292015.0816          20                     0  152           1
 -4  DISP        4    1
 -5  D1          1    2    1    0
 -5  D2          1    2    2    0
 -5  D3          1    2    3    0
 -5  ALL         1    2    0    0    1ALL
 -1         1 0.00000E+00 0.00000E+00 0.00000E+00
 -1         2 0.00000E+00 0.00000E+00 0.00000E+00
 -1         3 0.00000E+00 0.00000E+00 2.00000E-03
 -1         4 0.00000E+00 0.00000E+00 2.00000E-03
 -1         5 0.00000E+00 0.00000E+00 0.00000E+00
 -1         6 0.00000E+00 0.00000E+00 0.00000E+00
 -1         7 0.00000E+00 0.00000E+00 2.00000E-03
 -1         8 0.00000E+00 0.00000E+00 2.00000E-03
 -1         9 0.00000E+00 0.00000E+00 0.00000E+00
 -1        10 0.00000E+00 0.00000E+00 1.00000E-03
 -1        11 0.00000E+00 0.00000E+00 2.00000E-03
 -1        12 0.00000E+00 0.00000E+00 1.00000E-03
 -1        13 0.00000E+00 0.00000E+00 0.00000E+00
 -1        14 0.00000E+00 0.00000E+00 0.00000E+00
 -1        15 0.00000E+00 0.00000E+00 2.00000E-03
 -1        16 0.00000E+00 0.00000E+00 2.00000E-03
 -1        17 0.00000E+00 0.00000E+00 0.00000E+00
 -1        18 0.00000E+00 0.00000E+00 1.00000E-03
 -1        19 0.00000E+00 0.00000E+00 2.00000E-03
 -1        20 0.00000E+00 0.00000E+00 1.00000E-03
 -3
    1PSTEP                       757         152           1          
  100CL  252 292015.0816          20                     0  152           1
 -4  STRESS      6    1
 -5  SXX         1    4    1    1
 -5  SYY         1    4    2    2
 -5  SZZ         1    4    3    3
 -5  SXY         1    4    1    2
 -5  SYZ         1    4    2    3
 -5  SZX         1    4    3    1
 -1         1 1.86179E+02 1.86179E+02 2.27618E+02 0.00000E+00 8.54820E-15 1.48995E-14
 -1         2 1.86179E+02 1.86179E+02 2.27618E+02 0.00000E+00-1.34443E-14-1.67565E-14
 -1         3 1.86179E+02 1.86179E+02 2.27618E+02 0.00000E+00-2.09099E-15-2.48337E-14
 -1         4 1.86179E+02 1.86179E+02 2.27618E+02 0.00000E+00-4.78361E-15 3.64959E-14
 -1         5 1.86179E+02 1.86179E+02 2.27618E+02 0.00000E+00 6.13658E-15-5.24696E-15
 -1         6 1.86179E+02 1.86179E+02 2.27618E+02 0.00000E+00-4.43123E-15 1.79608E-16
 -1         7 1.86179E+02 1.86179E+02 2.27618E+02 0.00000E+00 4.00380E-14 2.92800E-14
 -1         8 1.86179E+02 1.86179E+02 2.27618E+02 0.00000E+00-6.08136E-17-7.80144E-15
 -1         9 1.86196E+02 1.86196E+02 2.27639E+02 0.00000E+00-8.67768E-15-4.23929E-15
 -1        10 1.86196E+02 1.86196E+02 2.27639E+02 0.00000E+00 9.12544E-15 7.98254E-15
 -1        11 1.86196E+02 1.86196E+02 2.27639E+02 0.00000E+00 5.27539E-15 4.63651E-15
 -1        12 1.86196E+02 1.86196E+02 2.27639E+02 0.00000E+00 5.01593E-15 3.55948E-15
 -1        13 1.86196E+02 1.86196E+02 2.27639E+02 0.00000E+00-3.56610E-15-5.25038E-16
 -1        14 1.86196E+02 1.86196E+02 2.27639E+02 0.00000E+00 8.49873E-15 1.85268E-15
 -1        15 1.86196E+02 1.86196E+02 2.27639E+02 0.00000E+00-2.41098E-14 5.16500E-15
 -1        16 1.86196E+02 1.86196E+02 2.27639E+02 0.00000E+00 9.22383E-15 8.66102E-15
 -1        17 1.86196E+02 1.86196E+02 2.27639E+02 0.00000E+00-1.00850E-15 4.71408E-15
 -1        18 1.86196E+02 1.86196E+02 2.27639E+02 0.00000E+00 1.26290E-14-1.62689E-14
 -1        19 1.86196E+02 1.86196E+02 2.27639E+02 0.00000E+00 1.08386E-14-2.32302E-15
 -1        20 1.86196E+02 1.86196E+02 2.27639E+02 0.00000E+00 4.77509E-15 9.26127E-15
 -3
    1PSTEP                       758         152           1          
  100CL  252 292015.0816          20                     0  152           1
 -4  TOSTRAIN    6    1
 -5  EXX         1    4    1    1
 -5  EYY         1    4    2    2
 -5  EZZ         1    4    3    3
 -5  EXY         1    4    1    2
 -5  EYZ         1    4    2    3
 -5  EZX         1    4    3    1
 -1         1 0.00000E+00 0.00000E+00 1.99992E-03 0.00000E+00 4.12546E-19 7.19066E-19
 -1         2 0.00000E+00 0.00000E+00 1.99992E-03 0.00000E+00-6.48839E-19-8.08690E-19
 -1         3 0.00000E+00 0.00000E+00 1.99992E-03 0.00000E+00-1.00914E-19-1.19850E-18
 -1         4 0.00000E+00 0.00000E+00 1.99992E-03 0.00000E+00-2.30863E-19 1.76134E-18
 -1         5 0.00000E+00 0.00000E+00 1.99992E-03 0.00000E+00 2.96159E-19-2.53224E-19
 -1         6 0.00000E+00 0.00000E+00 1.99992E-03 0.00000E+00-2.13856E-19 8.66809E-21
 -1         7 0.00000E+00 0.00000E+00 1.99992E-03 0.00000E+00 1.93228E-18 1.41309E-18
 -1         8 0.00000E+00 0.00000E+00 1.99992E-03 0.00000E+00-2.93494E-21-3.76507E-19
 -1         9 0.00000E+00 0.00000E+00 2.00010E-03 0.00000E+00-4.18795E-19-2.04593E-19
 -1        10 0.00000E+00 0.00000E+00 2.00010E-03 0.00000E+00 4.40404E-19 3.85247E-19
 -1        11 0.00000E+00 0.00000E+00 2.00010E-03 0.00000E+00 2.54597E-19 2.23763E-19
 -1        12 0.00000E+00 0.00000E+00 2.00010E-03 0.00000E+00 2.42075E-19 1.71784E-19
 -1        13 0.00000E+00 0.00000E+00 2.00010E-03 0.00000E+00-1.72104E-19-2.53389E-20
 -1        14 0.00000E+00 0.00000E+00 2.00010E-03 0.00000E+00 4.10158E-19 8.94127E-20
 -1        15 0.00000E+00 0.00000E+00 2.00010E-03 0.00000E+00-1.16356E-18 2.49269E-19
 -1        16 0.00000E+00 0.00000E+00 2.00010E-03 0.00000E+00 4.45153E-19 4.17991E-19
 -1        17 0.00000E+00 0.00000E+00 2.00010E-03 0.00000E+00-4.86716E-20 2.27507E-19
 -1        18 0.00000E+00 0.00000E+00 2.00010E-03 0.00000E+00 6.09490E-19-7.85158E-19
 -1        19 0.00000E+00 0.00000E+00 2.00010E-03 0.00000E+00 5.23083E-19-1.12112E-19
 -1        20 0.00000E+00 0.00000E+00 2.00010E-03 0.00000E+00 2.30452E-19 4.46960E-19
 -3
    1PSTEP                       759         152           1          
  100CL  252 292015.0816          20                     0  152           1
 -4  FORC        4    1
 -5  F1          1    2    1    0
 -5  F2          1    2    2    0
 -5  F3          1    2    3    0
 -5  ALL         1    2    0    0    1ALL
 -1         1-1.55155E+01-1.55155E+01 1.89690E+01
 -1         2-1.55155E+01 1.55155E+01 1.89690E+01
 -1         3-1.55155E+01 1.55155E+01-1.89690E+01
 -1         4-1.55155E+01-1.55155E+01-1.89690E+01
 -1         5 1.55155E+01-1.55155E+01 1.89690E+01
 -1         6 1.55155E+01 1.55155E+01 1.89690E+01
 -1         7 1.55155E+01 1.55155E+01-1.89690E+01
 -1         8 1.55155E+01-1.55155E+01-1.89690E+01
 -1         9 6.20621E+01-3.76111E-15-7.58758E+01
 -1        10 6.20621E+01-6.20621E+01 1.06581E-14
 -1        11 6.20621E+01 7.56363E-15 7.58758E+01
 -1        12 6.20621E+01 6.20621E+01 1.98175E-14
 -1        13-1.31104E-14 6.20621E+01-7.58758E+01
 -1        14 4.58603E-15-6.20621E+01-7.58758E+01
 -1        15 7.18233E-15-6.20621E+01 7.58758E+01
 -1        16-1.76659E-15 6.20621E+01 7.58758E+01
 -1        17-6.20621E+01 3.44163E-15-7.58758E+01
 -1        18-6.20621E+01-6.20621E+01 1.06581E-14
 -1        19-6.20621E+01 3.66380E-15 7.58758E+01
 -1        20-6.20621E+01 6.20621E+01 9.54792E-15
 -3
    1PSTEP                       760         152           1          
  100CL  252 292015.0816          20                     0  152           1
 -4  ERROR       1    1
 -5  STR(%)      1    1    0    0
 -1         1 8.17488E-14
 -1         2 8.17488E-14
 -1         3 8.17488E-14
 -1         4 8.17488E-14
 -1         5 8.17488E-14
 -1         6 8.17488E-14
 -1         7 8.17488E-14
 -1         8 8.17488E-14
 -1         9 8.17488E-14
 -1        10 8.17488E-14
 -1        11 8.17488E-14
 -1        12 8.17488E-14
 -1        13 8.17488E-14
 -1        14 8.17488E-14
 -1        15 8.17488E-14
 -1        16 8.17488E-14
 -1        17 8.17488E-14
 -1        18 8.17488E-14
 -1        19 8.17488E-14
 -1        20 8.17488E-14
 -3
    1PSTEP                       761         153           1          
  100CL  253 294411.4509          20                     0  153           1
 -4  DISP        4    1
 -5  D1          1    2    1    0
 -5  D2          1    2    2    0
 -5  D3          1    2    3    0
 -5  ALL         1    2    0    0    1ALL
 -1         1 0.00000E+00 0.00000E+00 0.00000E+00
 -1         2 0.00000E+00 0.00000E+00 0.00000E+00
 -1         3 0.00000E+00 0.00000E+00 2.00000E-03
 -1         4 0.00000E+00 0.00000E+00 2.00000E-03
 -1         5 0.00000E+00 0.00000E+00 0.00000E+00
 -1         6 0.00000E+00 0.00000E+00 0.00000E+00
 -1         7 0.00000E+00 0.00000E+00 2.00000E-03
 -1         8 0.00000E+00 0.00000E+00 2.00000E-03
 -1         9 0.00000E+00 0.00000E+00 0.00000E+00
 -1        10 0.00000E+00 0.00000E+00 1.00000E-03
 -1        11 0.00000E+00 0.00000E+00 2.00000E-03
 -1        12 0.00000E+00 0.00000E+00 1.00000E-03
 -1        13 0.00000E+00 0.00000E+00 0.00000E+00
 -1        14 0.00000E+00 0.00000E+00 0.00000E+00
 -1        15 0.00000E+00 0.00000E+00 2.00000E-03
 -1        16 0.00000E+00 0.00000E+00 2.00000E-03
 -1        17 0.00000E+00 0.00000E+00 0.00000E+00
 -1        18 0.00000E+00 0.00000E+00 1.00000E-03
 -1        19 0.00000E+00 0.00000E+00 2.00000E-03
 -1        20 0.00000E+00 0.00000E+00 1.00000E-03
 -3
    1PSTEP                       762         153           1          
  100CL  253 294411.4509          20                     0  153           1
 -4  STRESS      6    1
 -5  SXX         1    4    1    1
 -5  SYY         1    4    2    2
 -5  SZZ         1    4    3    3
 -5  SXY         1    4    1    2
 -5  SYZ         1    4    2    3
 -5  SZX         1    4    3    1
 -1         1 1.86311E+02 1.86311E+02 2.27355E+02 0.00000E+00 8.46665E-15 1.47573E-14
 -1         2 1.86311E+02 1.86311E+02 2.27355E+02 0.00000E+00-1.33161E-14-1.65967E-14
 -1         3 1.86311E+02 1.86311E+02 2.27355E+02 0.00000E+00-2.07104E-15-2.45968E-14
 -1         4 1.86311E+02 1.86311E+02 2.27355E+02 0.00000E+00-4.73798E-15 3.61478E-14
 -1         5 1.86311E+02 1.86311E+02 2.27355E+02 0.00000E+00 6.07804E-15-5.19690E-15
 -1         6 1.86311E+02 1.86311E+02 2.27355E+02 0.00000E+00-4.38895E-15 1.77895E-16
 -1         7 1.86311E+02 1.86311E+02 2.27355E+02 0.00000E+00 3.96561E-14 2.90006E-14
 -1         8 1.86311E+02 1.86311E+02 2.27355E+02 0.00000E+00-6.02334E-17-7.72702E-15
 -1         9 1.86327E+02 1.86327E+02 2.27375E+02 0.00000E+00-8.59490E-15-4.19884E-15
 -1        10 1.86327E+02 1.86327E+02 2.27375E+02 0.00000E+00 9.03838E-15 7.90639E-15
 -1        11 1.86327E+02 1.86327E+02 2.27375E+02 0.00000E+00 5.22506E-15 4.59228E-15
 -1        12 1.86327E+02 1.86327E+02 2.27375E+02 0.00000E+00 4.96808E-15 3.52552E-15
 -1        13 1.86327E+02 1.86327E+02 2.27375E+02 0.00000E+00-3.53208E-15-5.20029E-16
 -1        14 1.86327E+02 1.86327E+02 2.27375E+02 0.00000E+00 8.41765E-15 1.83501E-15
 -1        15 1.86327E+02 1.86327E+02 2.27375E+02 0.00000E+00-2.38797E-14 5.11572E-15
 -1        16 1.86327E+02 1.86327E+02 2.27375E+02 0.00000E+00 9.13584E-15 8.57839E-15
 -1        17 1.86327E+02 1.86327E+02 2.27375E+02 0.00000E+00-9.98883E-16 4.66911E-15
 -1        18 1.86327E+02 1.86327E+02 2.27375E+02 0.00000E+00 1.25085E-14-1.61137E-14
 -1        19 1.86327E+02 1.86327E+02 2.27375E+02 0.00000E+00 1.07352E-14-2.30086E-15
 -1        20 1.86327E+02 1.86327E+02 2.27375E+02 0.00000E+00 4.72954E-15 9.17292E-15
 -3
    1PSTEP                       763         153           1          
  100CL  253 294411.4509          20                     0  153           1
 -4  TOSTRAIN    6    1
 -5  EXX         1    4    1    1
 -5  EYY         1    4    2    2
 -5  EZZ         1    4    3    3
 -5  EXY         1    4    1    2
 -5  EYZ         1    4    2    3
 -5  EZX         1    4    3    1
 -1         1 0.00000E+00 0.00000E+00 1.99992E-03 0.00000E+00 4.12546E-19 7.19066E-19
 -1         2 0.00000E+00 0.00000E+00 1.99992E-03 0.00000E+00-6.48839E-19-8.08690E-19
 -1         3 0.00000E+00 0.00000E+00 1.99992E-03 0.00000E+00-1.00914E-19-1.19850E-18
 -1         4 0.00000E+00 0.00000E+00 1.99992E-03 0.00000E+00-2.30863E-19 1.76134E-18
 -1         5 0.00000E+00 0.00000E+00 1.99992E-03 0.00000E+00 2.96159E-19-2.53224E-19
 -1         6 0.00000E+00 0.00000E+00 1.99992E-03 0.00000E+00-2.13856E-19 8.66809E-21
 -1         7 0.00000E+00 0.00000E+00 1.99992E-03 0.00000E+00 1.93228E-18 1.41309E-18
 -1         8 0.00000E+00 0.00000E+00 1.99992E-03 0.00000E+00-2.93494E-21-3.76507E-19
 -1         9 0.00000E+00 0.00000E+00 2.00010E-03 0.00000E+00-4.18795E-19-2.04593E-19
 -1        10 0.00000E+00 0.00000E+00 2.00010E-03 0.00000E+00 4.40404E-19 3.85247E-19
 -1        11 0.00000E+00 0.00000E+00 2.00010E-03 0.00000E+00 2.54597E-19 2.23763E-19
 -1        12 0.00000E+00 0.00000E+00 2.00010E-03 0.00000E+00 2.42075E-19 1.71784E-19
 -1        13 0.00000E+00 0.00000E+00 2.00010E-03 0.00000E+00-1.72104E-19-2.53389E-20
 -1        14 0.00000E+00 0.00000E+00 2.00010E-03 0.00000E+00 4.10158E-19 8.94127E-20
 -1        15 0.00000E+00 0.00000E+00 2.00010E-03 0.00000E+00-1.16356E-18 2.49269E-19
 -1        16 0.00000E+00 0.00000E+00 2.00010E-03 0.00000E+00 4.45153E-19 4.17991E-19
 -1        17 0.00000E+00 0.00000E+00 2.00010E-03 0.00000E+00-4.86716E-20 2.27507E-19
 -1        18 0.00000E+00 0.00000E+00 2.00010E-03 0.00000E+00 6.09490E-19-7.85158E-19
 -1        19 0.00000E+00 0.00000E+00 2.00010E-03 0.00000E+00 5.23083E-19-1.12112E-19
 -1        20 0.00000E+00 0.00000E+00 2.00010E-03 0.00000E+00 2.30452E-19 4.46960E-19
 -3
    1PSTEP                       764         153           1          
  100CL  253 294411.4509          20                     0  153           1
 -4  FORC        4    1
 -5  F1          1    2    1    0
 -5  F2          1    2    2    0
 -5  F3          1    2    3    0
 -5  ALL         1    2    0    0    1ALL
 -1         1-1.55265E+01-1.55265E+01 1.89470E+01
 -1         2-1.55265E+01 1.55265E+01 1.89470E+01
 -1         3-1.55265E+01 1.55265E+01-1.89470E+01
 -1         4-1.55265E+01-1.55265E+01-1.89470E+01
 -1         5 1.55265E+01-1.55265E+01 1.89470E+01
 -1         6 1.55265E+01 1.55265E+01 1.89470E+01
 -1         7 1.55265E+01 1.55265E+01-1.89470E+01
 -1         8 1.55265E+01-1.55265E+01-1.89470E+01
 -1         9 6.21060E+01-6.20347E-15-7.57880E+01
 -1        10 6.21060E+01-6.21060E+01 7.99361E-15
 -1        11 6.21060E+01 2.67851E-15 7.57880E+01
 -1        12 6.21060E+01 6.21060E+01 1.92901E-14
 -1        13-1.15005E-14 6.21060E+01-7.57880E+01
 -1        14-1.85253E-15-6.21060E+01-7.57880E+01
 -1        15 1.85253E-15-6.21060E+01 7.57880E+01
 -1        16-8.65006E-15 6.21060E+01 7.57880E+01
 -1        17-6.21060E+01 3.44269E-15-7.57880E+01
 -1        18-6.21060E+01-6.21060E+01 8.88178E-15
 -1        19-6.21060E+01 3.66274E-15 7.57880E+01
 -1        20-6.21060E+01 6.21060E+01 4.44089E-15
 -3
    1PSTEP                       765         153           1          
  100CL  253 294411.4509          20                     0  153           1
 -4  ERROR       1    1
 -5  STR(%)      1    1    0    0
 -1         1 1.85427E-14
 -1         2 1.85427E-14
 -1         3 1.85427E-14
 -1         4 1.85427E-14
 -1         5 1.85427E-14
 -1         6 1.85427E-14
 -1         7 1.85427E-14
 -1         8 1.85427E-14
 -1         9 1.85427E-14
 -1        10 1.85427E-14
 -1        11 1.85427E-14
 -1        12 1.85427E-14
 -1        13 1.85427E-14
 -1        14 1.85427E-14
 -1        15 1.85427E-14
 -1        16 1.85427E-14
 -1        17 1.85427E-14
 -1        18 1.85427E-14
 -1        19 1.85427E-14
 -1        20 1.85427E-14
 -3
    1PSTEP                       766         154           1          
  100CL  254 296807.8202          20                     0  154           1
 -4  DISP        4    1
 -5  D1          1    2    1    0
 -5  D2          1    2    2    0
 -5  D3          1    2    3    0
 -5  ALL         1    2    0    0    1ALL
 -1         1 0.00000E+00 0.00000E+00 0.00000E+00
 -1         2 0.00000E+00 0.00000E+00 0.00000E+00
 -1         3 0.00000E+00 0.00000E+00 2.00000E-03
 -1         4 0.00000E+00 0.00000E+00 2.00000E-03
 -1         5 0.00000E+00 0.00000E+00 0.00000E+00
 -1         6 0.00000E+00 0.00000E+00 0.00000E+00
 -1         7 0.00000E+00 0.00000E+00 2.00000E-03
 -1         8 0.00000E+00 0.00000E+00 2.00000E-03
 -1         9 0.00000E+00 0.00000E+00 0.00000E+00
 -1        10 0.00000E+00 0.00000E+00 1.00000E-03
 -1        11 0.00000E+00 0.00000E+00 2.00000E-03
 -1        12 0.00000E+00 0.00000E+00 1.00000E-03
 -1        13 0.00000E+00 0.00000E+00 0.00000E+00
 -1        14 0.00000E+00 0.00000E+00 0.00000E+00
 -1        15 0.00000E+00 0.00000E+00 2.00000E-03
 -1        16 0.00000E+00 0.00000E+00 2.00000E-03
 -1        17 0.00000E+00 0.00000E+00 0.00000E+00
 -1        18 0.00000E+00 0.00000E+00 1.00000E-03
 -1        19 0.00000E+00 0.00000E+00 2.00000E-03
 -1        20 0.00000E+00 0.00000E+00 1.00000E-03
 -3
    1PSTEP                       767         154           1          
  100CL  254 296807.8202          20                     0  154           1
 -4  STRESS      6    1
 -5  SXX         1    4    1    1
 -5  SYY         1    4    2    2
 -5  SZZ         1    4    3    3
 -5  SXY         1    4    1    2
 -5  SYZ         1    4    2    3
 -5  SZX         1    4    3    1
 -1         1 1.86441E+02 1.86441E+02 2.27094E+02 0.00000E+00 8.38587E-15 1.46165E-14
 -1         2 1.86441E+02 1.86441E+02 2.27094E+02 0.00000E+00-1.31890E-14-1.64383E-14
 -1         3 1.86441E+02 1.86441E+02 2.27094E+02 0.00000E+00-2.05129E-15-2.43621E-14
 -1         4 1.86441E+02 1.86441E+02 2.27094E+02 0.00000E+00-4.69278E-15 3.58029E-14
 -1         5 1.86441E+02 1.86441E+02 2.27094E+02 0.00000E+00 6.02005E-15-5.14732E-15
 -1         6 1.86441E+02 1.86441E+02 2.27094E+02 0.00000E+00-4.34708E-15 1.76197E-16
 -1         7 1.86441E+02 1.86441E+02 2.27094E+02 0.00000E+00 3.92778E-14 2.87240E-14
 -1         8 1.86441E+02 1.86441E+02 2.27094E+02 0.00000E+00-5.96588E-17-7.65330E-15
 -1         9 1.86458E+02 1.86458E+02 2.27114E+02 0.00000E+00-8.51290E-15-4.15879E-15
 -1        10 1.86458E+02 1.86458E+02 2.27114E+02 0.00000E+00 8.95215E-15 7.83096E-15
 -1        11 1.86458E+02 1.86458E+02 2.27114E+02 0.00000E+00 5.17522E-15 4.54847E-15
 -1        12 1.86458E+02 1.86458E+02 2.27114E+02 0.00000E+00 4.92068E-15 3.49188E-15
 -1        13 1.86458E+02 1.86458E+02 2.27114E+02 0.00000E+00-3.49838E-15-5.15068E-16
 -1        14 1.86458E+02 1.86458E+02 2.27114E+02 0.00000E+00 8.33734E-15 1.81750E-15
 -1        15 1.86458E+02 1.86458E+02 2.27114E+02 0.00000E+00-2.36519E-14 5.06692E-15
 -1        16 1.86458E+02 1.86458E+02 2.27114E+02 0.00000E+00 9.04868E-15 8.49655E-15
 -1        17 1.86458E+02 1.86458E+02 2.27114E+02 0.00000E+00-9.89354E-16 4.62456E-15
 -1        18 1.86458E+02 1.86458E+02 2.27114E+02 0.00000E+00 1.23892E-14-1.59600E-14
 -1        19 1.86458E+02 1.86458E+02 2.27114E+02 0.00000E+00 1.06328E-14-2.27891E-15
 -1        20 1.86458E+02 1.86458E+02 2.27114E+02 0.00000E+00 4.68442E-15 9.08541E-15
 -3
    1PSTEP                       768         154           1          
  100CL  254 296807.8202          20                     0  154           1
 -4  TOSTRAIN    6    1
 -5  EXX         1    4    1    1
 -5  EYY         1    4    2    2
 -5  EZZ         1    4    3    3
 -5  EXY         1    4    1    2
 -5  EYZ         1    4    2    3
 -5  EZX         1    4    3    1
 -1         1 0.00000E+00 0.00000E+00 1.99992E-03 0.00000E+00 4.12546E-19 7.19066E-19
 -1         2 0.00000E+00 0.00000E+00 1.99992E-03 0.00000E+00-6.48839E-19-8.08690E-19
 -1         3 0.00000E+00 0.00000E+00 1.99992E-03 0.00000E+00-1.00914E-19-1.19850E-18
 -1         4 0.00000E+00 0.00000E+00 1.99992E-03 0.00000E+00-2.30863E-19 1.76134E-18
 -1         5 0.00000E+00 0.00000E+00 1.99992E-03 0.00000E+00 2.96159E-19-2.53224E-19
 -1         6 0.00000E+00 0.00000E+00 1.99992E-03 0.00000E+00-2.13856E-19 8.66809E-21
 -1         7 0.00000E+00 0.00000E+00 1.99992E-03 0.00000E+00 1.93228E-18 1.41309E-18
 -1         8 0.00000E+00 0.00000E+00 1.99992E-03 0.00000E+00-2.93494E-21-3.76507E-19
 -1         9 0.00000E+00 0.00000E+00 2.00010E-03 0.00000E+00-4.18795E-19-2.04593E-19
 -1        10 0.00000E+00 0.00000E+00 2.00010E-03 0.00000E+00 4.40404E-19 3.85247E-19
 -1        11 0.00000E+00 0.00000E+00 2.00010E-03 0.00000E+00 2.54597E-19 2.23763E-19
 -1        12 0.00000E+00 0.00000E+00 2.00010E-03 0.00000E+00 2.42075E-19 1.71784E-19
 -1        13 0.00000E+00 0.00000E+00 2.00010E-03 0.00000E+00-1.72104E-19-2.53389E-20
 -1        14 0.00000E+00 0.00000E+00 2.00010E-03 0.00000E+00 4.10158E-19 8.94127E-20
 -1        15 0.00000E+00 0.00000E+00 2.00010E-03 0.00000E+00-1.16356E-18 2.49269E-19
 -1        16 0.00000E+00 0.00000E+00 2.00010E-03 0.00000E+00 4.45153E-19 4.17991E-19
 -1        17 0.00000E+00 0.00000E+00 2.00010E-03 0.00000E+00-4.86716E-20 2.27507E-19
 -1        18 0.00000E+00 0.00000E+00 2.00010E-03 0.00000E+00 6.09490E-19-7.85158E-19
 -1        19 0.00000E+00 0.00000E+00 2.00010E-03 0.00000E+00 5.23083E-19-1.12112E-19
 -1        20 0.00000E+00 0.00000E+00 2.00010E-03 0.00000E+00 2.30452E-19 4.46960E-19
 -3
    1PSTEP                       769         154           1          
  100CL  254 296807.8202          20                     0  154           1
 -4  FORC        4    1
 -5  F1          1    2    1    0
 -5  F2          1    2    2    0
 -5  F3          1    2    3    0
 -5  ALL         1    2    0    0    1ALL
 -1         1-1.55374E+01-1.55374E+01 1.89252E+01
 -1         2-1.55374E+01 1.55374E+01 1.89252E+01
 -1         3-1.55374E+01 1.55374E+01-1.89252E+01
 -1         4-1.55374E+01-1.55374E+01-1.89252E+01
 -1         5 1.55374E+01-1.55374E+01 1.89252E+01
 -1         6 1.55374E+01 1.55374E+01 1.89252E+01
 -1         7 1.55374E+01 1.55374E+01-1.89252E+01
 -1         8 1.55374E+01-1.55374E+01-1.89252E+01
 -1         9 6.21495E+01-6.20333E-15-7.57009E+01
 -1        10 6.21495E+01-6.21495E+01 1.11022E-14
 -1        11 6.21495E+01 2.45633E-15 7.57009E+01
 -1        12 6.21495E+01 6.21495E+01 2.75890E-14
 -1        13-1.52196E-14 6.21495E+01-7.57009E+01
 -1        14 2.58909E-15-6.21495E+01-7.57009E+01
 -1        15 5.40451E-15-6.21495E+01 7.57009E+01
 -1        16-3.54313E-15 6.21495E+01 7.57009E+01
 -1        17-6.21495E+01 3.44374E-15-7.57009E+01
 -1        18-6.21495E+01-6.21495E+01 1.77636E-15
 -1        19-6.21495E+01 1.88533E-15 7.57009E+01
 -1        20-6.21495E+01 6.21495E+01 4.44089E-15
 -3
    1PSTEP                       770         154           1          
  100CL  254 296807.8202          20                     0  154           1
 -4  ERROR       1    1
 -5  STR(%)      1    1    0    0
 -1         1 2.81661E-14
 -1         2 2.81661E-14
 -1         3 2.81661E-14
 -1         4 2.81661E-14
 -1         5 2.81661E-14
 -1         6 2.81661E-14
 -1         7 2.81661E-14
 -1         8 2.81661E-14
 -1         9 2.81661E-14
 -1        10 2.81661E-14
 -1        11 2.81661E-14
 -1        12 2.81661E-14
 -1        13 2.81661E-14
 -1        14 2.81661E-14
 -1        15 2.81661E-14
 -1        16 2.81661E-14
 -1        17 2.81661E-14
 -1        18 2.81661E-14
 -1        19 2.81661E-14
 -1        20 2.81661E-14
 -3
    1PSTEP                       771         155           1          
  100CL  255 300402.3741          20                     0  155           1
 -4  DISP        4    1
 -5  D1          1    2    1    0
 -5  D2          1    2    2    0
 -5  D3          1    2    3    0
 -5  ALL         1    2    0    0    1ALL
 -1         1 0.00000E+00 0.00000E+00 0.00000E+00
 -1         2 0.00000E+00 0.00000E+00 0.00000E+00
 -1         3 0.00000E+00 0.00000E+00 2.00000E-03
 -1         4 0.00000E+00 0.00000E+00 2.00000E-03
 -1         5 0.00000E+00 0.00000E+00 0.00000E+00
 -1         6 0.00000E+00 0.00000E+00 0.00000E+00
 -1         7 0.00000E+00 0.00000E+00 2.00000E-03
 -1         8 0.00000E+00 0.00000E+00 2.00000E-03
 -1         9 0.00000E+00 0.00000E+00 0.00000E+00
 -1        10 0.00000E+00 0.00000E+00 1.00000E-03
 -1        11 0.00000E+00 0.00000E+00 2.00000E-03
 -1        12 0.00000E+00 0.00000E+00 1.00000E-03
 -1        13 0.00000E+00 0.00000E+00 0.00000E+00
 -1        14 0.00000E+00 0.00000E+00 0.00000E+00
 -1        15 0.00000E+00 0.00000E+00 2.00000E-03
 -1        16 0.00000E+00 0.00000E+00 2.00000E-03
 -1        17 0.00000E+00 0.00000E+00 0.00000E+00
 -1        18 0.00000E+00 0.00000E+00 1.00000E-03
 -1        19 0.00000E+00 0.00000E+00 2.00000E-03
 -1        20 0.00000E+00 0.00000E+00 1.00000E-03
 -3
    1PSTEP                       772         155           1          
  100CL  255 300402.3741          20                     0  155           1
 -4  STRESS      6    1
 -5  SXX         1    4    1    1
 -5  SYY         1    4    2    2
 -5  SZZ         1    4    3    3
 -5  SXY         1    4    1    2
 -5  SYZ         1    4    2    3
 -5  SZX         1    4    3    1
 -1         1 1.86634E+02 1.86634E+02 2.26708E+02 0.00000E+00 8.26644E-15 1.44084E-14
 -1         2 1.86634E+02 1.86634E+02 2.26708E+02 0.00000E+00-1.30012E-14-1.62042E-14
 -1         3 1.86634E+02 1.86634E+02 2.26708E+02 0.00000E+00-2.02207E-15-2.40151E-14
 -1         4 1.86634E+02 1.86634E+02 2.26708E+02 0.00000E+00-4.62594E-15 3.52930E-14
 -1         5 1.86634E+02 1.86634E+02 2.26708E+02 0.00000E+00 5.93431E-15-5.07401E-15
 -1         6 1.86634E+02 1.86634E+02 2.26708E+02 0.00000E+00-4.28517E-15 1.73688E-16
 -1         7 1.86634E+02 1.86634E+02 2.26708E+02 0.00000E+00 3.87184E-14 2.83149E-14
 -1         8 1.86634E+02 1.86634E+02 2.26708E+02 0.00000E+00-5.88091E-17-7.54430E-15
 -1         9 1.86651E+02 1.86651E+02 2.26728E+02 0.00000E+00-8.39166E-15-4.09956E-15
 -1        10 1.86651E+02 1.86651E+02 2.26728E+02 0.00000E+00 8.82466E-15 7.71943E-15
 -1        11 1.86651E+02 1.86651E+02 2.26728E+02 0.00000E+00 5.10151E-15 4.48369E-15
 -1        12 1.86651E+02 1.86651E+02 2.26728E+02 0.00000E+00 4.85060E-15 3.44215E-15
 -1        13 1.86651E+02 1.86651E+02 2.26728E+02 0.00000E+00-3.44856E-15-5.07732E-16
 -1        14 1.86651E+02 1.86651E+02 2.26728E+02 0.00000E+00 8.21860E-15 1.79162E-15
 -1        15 1.86651E+02 1.86651E+02 2.26728E+02 0.00000E+00-2.33151E-14 4.99476E-15
 -1        16 1.86651E+02 1.86651E+02 2.26728E+02 0.00000E+00 8.91981E-15 8.37554E-15
 -1        17 1.86651E+02 1.86651E+02 2.26728E+02 0.00000E+00-9.75263E-16 4.55870E-15
 -1        18 1.86651E+02 1.86651E+02 2.26728E+02 0.00000E+00 1.22127E-14-1.57327E-14
 -1        19 1.86651E+02 1.86651E+02 2.26728E+02 0.00000E+00 1.04813E-14-2.24645E-15
 -1        20 1.86651E+02 1.86651E+02 2.26728E+02 0.00000E+00 4.61770E-15 8.95601E-15
 -3
    1PSTEP                       773         155           1          
  100CL  255 300402.3741          20                     0  155           1
 -4  TOSTRAIN    6    1
 -5  EXX         1    4    1    1
 -5  EYY         1    4    2    2
 -5  EZZ         1    4    3    3
 -5  EXY         1    4    1    2
 -5  EYZ         1    4    2    3
 -5  EZX         1    4    3    1
 -1         1 0.00000E+00 0.00000E+00 1.99992E-03 0.00000E+00 4.12546E-19 7.19066E-19
 -1         2 0.00000E+00 0.00000E+00 1.99992E-03 0.00000E+00-6.48839E-19-8.08690E-19
 -1         3 0.00000E+00 0.00000E+00 1.99992E-03 0.00000E+00-1.00914E-19-1.19850E-18
 -1         4 0.00000E+00 0.00000E+00 1.99992E-03 0.00000E+00-2.30863E-19 1.76134E-18
 -1         5 0.00000E+00 0.00000E+00 1.99992E-03 0.00000E+00 2.96159E-19-2.53224E-19
 -1         6 0.00000E+00 0.00000E+00 1.99992E-03 0.00000E+00-2.13856E-19 8.66809E-21
 -1         7 0.00000E+00 0.00000E+00 1.99992E-03 0.00000E+00 1.93228E-18 1.41309E-18
 -1         8 0.00000E+00 0.00000E+00 1.99992E-03 0.00000E+00-2.93494E-21-3.76507E-19
 -1         9 0.00000E+00 0.00000E+00 2.00010E-03 0.00000E+00-4.18795E-19-2.04593E-19
 -1        10 0.00000E+00 0.00000E+00 2.00010E-03 0.00000E+00 4.40404E-19 3.85247E-19
 -1        11 0.00000E+00 0.00000E+00 2.00010E-03 0.00000E+00 2.54597E-19 2.23763E-19
 -1        12 0.00000E+00 0.00000E+00 2.00010E-03 0.00000E+00 2.42075E-19 1.71784E-19
 -1        13 0.00000E+00 0.00000E+00 2.00010E-03 0.00000E+00-1.72104E-19-2.53389E-20
 -1        14 0.00000E+00 0.00000E+00 2.00010E-03 0.00000E+00 4.10158E-19 8.94127E-20
 -1        15 0.00000E+00 0.00000E+00 2.00010E-03 0.00000E+00-1.16356E-18 2.49269E-19
 -1        16 0.00000E+00 0.00000E+00 2.00010E-03 0.00000E+00 4.45153E-19 4.17991E-19
 -1        17 0.00000E+00 0.00000E+00 2.00010E-03 0.00000E+00-4.86716E-20 2.27507E-19
 -1        18 0.00000E+00 0.00000E+00 2.00010E-03 0.00000E+00 6.09490E-19-7.85158E-19
 -1        19 0.00000E+00 0.00000E+00 2.00010E-03 0.00000E+00 5.23083E-19-1.12112E-19
 -1        20 0.00000E+00 0.00000E+00 2.00010E-03 0.00000E+00 2.30452E-19 4.46960E-19
 -3
    1PSTEP                       774         155           1          
  100CL  255 300402.3741          20                     0  155           1
 -4  FORC        4    1
 -5  F1          1    2    1    0
 -5  F2          1    2    2    0
 -5  F3          1    2    3    0
 -5  ALL         1    2    0    0    1ALL
 -1         1-1.55535E+01-1.55535E+01 1.88931E+01
 -1         2-1.55535E+01 1.55535E+01 1.88931E+01
 -1         3-1.55535E+01 1.55535E+01-1.88931E+01
 -1         4-1.55535E+01-1.55535E+01-1.88931E+01
 -1         5 1.55535E+01-1.55535E+01 1.88931E+01
 -1         6 1.55535E+01 1.55535E+01 1.88931E+01
 -1         7 1.55535E+01 1.55535E+01-1.88931E+01
 -1         8 1.55535E+01-1.55535E+01-1.88931E+01
 -1         9 6.22139E+01-6.42518E-15-7.55723E+01
 -1        10 6.22139E+01-6.22139E+01 3.99680E-15
 -1        11 6.22139E+01 2.01205E-15 7.55723E+01
 -1        12 6.22139E+01 6.22139E+01 2.04281E-14
 -1        13 8.40049E-15 6.22139E+01-7.55723E+01
 -1        14 1.32483E-14-6.22139E+01-7.55723E+01
 -1        15-1.41365E-14-6.22139E+01 7.55723E+01
 -1        16-1.13148E-14 6.22139E+01 7.55723E+01
 -1        17-6.22139E+01 3.22325E-15-7.55723E+01
 -1        18-6.22139E+01-6.22139E+01 1.77636E-15
 -1        19-6.22139E+01 1.07422E-16 7.55723E+01
 -1        20-6.22139E+01 6.22139E+01 7.77156E-15
 -3
    1PSTEP                       775         155           1          
  100CL  255 300402.3741          20                     0  155           1
 -4  ERROR       1    1
 -5  STR(%)      1    1    0    0
 -1         1 3.84736E-15
 -1         2 3.84736E-15
 -1         3 3.84736E-15
 -1         4 3.84736E-15
 -1         5 3.84736E-15
 -1         6 3.84736E-15
 -1         7 3.84736E-15
 -1         8 3.84736E-15
 -1         9 3.84736E-15
 -1        10 3.84736E-15
 -1        11 3.84736E-15
 -1        12 3.84736E-15
 -1        13 3.84736E-15
 -1        14 3.84736E-15
 -1        15 3.84736E-15
 -1        16 3.84736E-15
 -1        17 3.84736E-15
 -1        18 3.84736E-15
 -1        19 3.84736E-15
 -1        20 3.84736E-15
 -3
    1PSTEP                       776         156           1          
  100CL  256 302890.0594          20                     0  156           1
 -4  DISP        4    1
 -5  D1          1    2    1    0
 -5  D2          1    2    2    0
 -5  D3          1    2    3    0
 -5  ALL         1    2    0    0    1ALL
 -1         1 0.00000E+00 0.00000E+00 0.00000E+00
 -1         2 0.00000E+00 0.00000E+00 0.00000E+00
 -1         3 0.00000E+00 0.00000E+00 2.00000E-03
 -1         4 0.00000E+00 0.00000E+00 2.00000E-03
 -1         5 0.00000E+00 0.00000E+00 0.00000E+00
 -1         6 0.00000E+00 0.00000E+00 0.00000E+00
 -1         7 0.00000E+00 0.00000E+00 2.00000E-03
 -1         8 0.00000E+00 0.00000E+00 2.00000E-03
 -1         9 0.00000E+00 0.00000E+00 0.00000E+00
 -1        10 0.00000E+00 0.00000E+00 1.00000E-03
 -1        11 0.00000E+00 0.00000E+00 2.00000E-03
 -1        12 0.00000E+00 0.00000E+00 1.00000E-03
 -1        13 0.00000E+00 0.00000E+00 0.00000E+00
 -1        14 0.00000E+00 0.00000E+00 0.00000E+00
 -1        15 0.00000E+00 0.00000E+00 2.00000E-03
 -1        16 0.00000E+00 0.00000E+00 2.00000E-03
 -1        17 0.00000E+00 0.00000E+00 0.00000E+00
 -1        18 0.00000E+00 0.00000E+00 1.00000E-03
 -1        19 0.00000E+00 0.00000E+00 2.00000E-03
 -1        20 0.00000E+00 0.00000E+00 1.00000E-03
 -3
    1PSTEP                       777         156           1          
  100CL  256 302890.0594          20                     0  156           1
 -4  STRESS      6    1
 -5  SXX         1    4    1    1
 -5  SYY         1    4    2    2
 -5  SZZ         1    4    3    3
 -5  SXY         1    4    1    2
 -5  SYZ         1    4    2    3
 -5  SZX         1    4    3    1
 -1         1 1.86766E+02 1.86766E+02 2.26443E+02 0.00000E+00 8.18460E-15 1.42657E-14
 -1         2 1.86766E+02 1.86766E+02 2.26443E+02 0.00000E+00-1.28725E-14-1.60438E-14
 -1         3 1.86766E+02 1.86766E+02 2.26443E+02 0.00000E+00-2.00205E-15-2.37774E-14
 -1         4 1.86766E+02 1.86766E+02 2.26443E+02 0.00000E+00-4.58014E-15 3.49436E-14
 -1         5 1.86766E+02 1.86766E+02 2.26443E+02 0.00000E+00 5.87556E-15-5.02378E-15
 -1         6 1.86766E+02 1.86766E+02 2.26443E+02 0.00000E+00-4.24275E-15 1.71968E-16
 -1         7 1.86766E+02 1.86766E+02 2.26443E+02 0.00000E+00 3.83350E-14 2.80346E-14
 -1         8 1.86766E+02 1.86766E+02 2.26443E+02 0.00000E+00-5.82269E-17-7.46961E-15
 -1         9 1.86783E+02 1.86783E+02 2.26464E+02 0.00000E+00-8.30858E-15-4.05897E-15
 -1        10 1.86783E+02 1.86783E+02 2.26464E+02 0.00000E+00 8.73729E-15 7.64301E-15
 -1        11 1.86783E+02 1.86783E+02 2.26464E+02 0.00000E+00 5.05101E-15 4.43930E-15
 -1        12 1.86783E+02 1.86783E+02 2.26464E+02 0.00000E+00 4.80258E-15 3.40808E-15
 -1        13 1.86783E+02 1.86783E+02 2.26464E+02 0.00000E+00-3.41442E-15-5.02706E-16
 -1        14 1.86783E+02 1.86783E+02 2.26464E+02 0.00000E+00 8.13724E-15 1.77388E-15
 -1        15 1.86783E+02 1.86783E+02 2.26464E+02 0.00000E+00-2.30843E-14 4.94531E-15
 -1        16 1.86783E+02 1.86783E+02 2.26464E+02 0.00000E+00 8.83150E-15 8.29263E-15
 -1        17 1.86783E+02 1.86783E+02 2.26464E+02 0.00000E+00-9.65608E-16 4.51357E-15
 -1        18 1.86783E+02 1.86783E+02 2.26464E+02 0.00000E+00 1.20918E-14-1.55770E-14
 -1        19 1.86783E+02 1.86783E+02 2.26464E+02 0.00000E+00 1.03776E-14-2.22421E-15
 -1        20 1.86783E+02 1.86783E+02 2.26464E+02 0.00000E+00 4.57199E-15 8.86735E-15
 -3
    1PSTEP                       778         156           1          
  100CL  256 302890.0594          20                     0  156           1
 -4  TOSTRAIN    6    1
 -5  EXX         1    4    1    1
 -5  EYY         1    4    2    2
 -5  EZZ         1    4    3    3
 -5  EXY         1    4    1    2
 -5  EYZ         1    4    2    3
 -5  EZX         1    4    3    1
 -1         1 0.00000E+00 0.00000E+00 1.99992E-03 0.00000E+00 4.12546E-19 7.19066E-19
 -1         2 0.00000E+00 0.00000E+00 1.99992E-03 0.00000E+00-6.48839E-19-8.08690E-19
 -1         3 0.00000E+00 0.00000E+00 1.99992E-03 0.00000E+00-1.00914E-19-1.19850E-18
 -1         4 0.00000E+00 0.00000E+00 1.99992E-03 0.00000E+00-2.30863E-19 1.76134E-18
 -1         5 0.00000E+00 0.00000E+00 1.99992E-03 0.00000E+00 2.96159E-19-2.53224E-19
 -1         6 0.00000E+00 0.00000E+00 1.99992E-03 0.00000E+00-2.13856E-19 8.66809E-21
 -1         7 0.00000E+00 0.00000E+00 1.99992E-03 0.00000E+00 1.93228E-18 1.41309E-18
 -1         8 0.00000E+00 0.00000E+00 1.99992E-03 0.00000E+00-2.93494E-21-3.76507E-19
 -1         9 0.00000E+00 0.00000E+00 2.00010E-03 0.00000E+00-4.18795E-19-2.04593E-19
 -1        10 0.00000E+00 0.00000E+00 2.00010E-03 0.00000E+00 4.40404E-19 3.85247E-19
 -1        11 0.00000E+00 0.00000E+00 2.00010E-03 0.00000E+00 2.54597E-19 2.23763E-19
 -1        12 0.00000E+00 0.00000E+00 2.00010E-03 0.00000E+00 2.42075E-19 1.71784E-19
 -1        13 0.00000E+00 0.00000E+00 2.00010E-03 0.00000E+00-1.72104E-19-2.53389E-20
 -1        14 0.00000E+00 0.00000E+00 2.00010E-03 0.00000E+00 4.10158E-19 8.94127E-20
 -1        15 0.00000E+00 0.00000E+00 2.00010E-03 0.00000E+00-1.16356E-18 2.49269E-19
 -1        16 0.00000E+00 0.00000E+00 2.00010E-03 0.00000E+00 4.45153E-19 4.17991E-19
 -1        17 0.00000E+00 0.00000E+00 2.00010E-03 0.00000E+00-4.86716E-20 2.27507E-19
 -1        18 0.00000E+00 0.00000E+00 2.00010E-03 0.00000E+00 6.09490E-19-7.85158E-19
 -1        19 0.00000E+00 0.00000E+00 2.00010E-03 0.00000E+00 5.23083E-19-1.12112E-19
 -1        20 0.00000E+00 0.00000E+00 2.00010E-03 0.00000E+00 2.30452E-19 4.46960E-19
 -3
    1PSTEP                       779         156           1          
  100CL  256 302890.0594          20                     0  156           1
 -4  FORC        4    1
 -5  F1          1    2    1    0
 -5  F2          1    2    2    0
 -5  F3          1    2    3    0
 -5  ALL         1    2    0    0    1ALL
 -1         1-1.55645E+01-1.55645E+01 1.88710E+01
 -1         2-1.55645E+01 1.55645E+01 1.88710E+01
 -1         3-1.55645E+01 1.55645E+01-1.88710E+01
 -1         4-1.55645E+01-1.55645E+01-1.88710E+01
 -1         5 1.55645E+01-1.55645E+01 1.88710E+01
 -1         6 1.55645E+01 1.55645E+01 1.88710E+01
 -1         7 1.55645E+01 1.55645E+01-1.88710E+01
 -1         8 1.55645E+01-1.55645E+01-1.88710E+01
 -1         9 6.22579E+01-2.90009E-15-7.54841E+01
 -1        10 6.22579E+01-6.22579E+01 9.54792E-15
 -1        11 6.22579E+01 4.23236E-15 7.54841E+01
 -1        12 6.22579E+01 6.22579E+01 1.32672E-14
 -1        13-2.61838E-15 6.22579E+01-7.54841E+01
 -1        14 1.23609E-14-6.22579E+01-7.54841E+01
 -1        15 3.62635E-15-6.22579E+01 7.54841E+01
 -1        16 3.11798E-15 6.22579E+01 7.54841E+01
 -1        17-6.22579E+01 1.44795E-15-7.54841E+01
 -1        18-6.22579E+01-6.22579E+01 8.88178E-15
 -1        19-6.22579E+01 1.88272E-15 7.54841E+01
 -1        20-6.22579E+01 6.22579E+01-3.77476E-15
 -3
    1PSTEP                       780         156           1          
  100CL  256 302890.0594          20                     0  156           1
 -4  ERROR       1    1
 -5  STR(%)      1    1    0    0
 -1         1 3.20988E-15
 -1         2 3.20988E-15
 -1         3 3.20988E-15
 -1         4 3.20988E-15
 -1         5 3.20988E-15
 -1         6 3.20988E-15
 -1         7 3.20988E-15
 -1         8 3.20988E-15
 -1         9 3.20988E-15
 -1        10 3.20988E-15
 -1        11 3.20988E-15
 -1        12 3.20988E-15
 -1        13 3.20988E-15
 -1        14 3.20988E-15
 -1        15 3.20988E-15
 -1        16 3.20988E-15
 -1        17 3.20988E-15
 -1        18 3.20988E-15
 -1        19 3.20988E-15
 -1        20 3.20988E-15
 -3
    1PSTEP                       781         157           1          
  100CL  257 305377.7447          20                     0  157           1
 -4  DISP        4    1
 -5  D1          1    2    1    0
 -5  D2          1    2    2    0
 -5  D3          1    2    3    0
 -5  ALL         1    2    0    0    1ALL
 -1         1 0.00000E+00 0.00000E+00 0.00000E+00
 -1         2 0.00000E+00 0.00000E+00 0.00000E+00
 -1         3 0.00000E+00 0.00000E+00 2.00000E-03
 -1         4 0.00000E+00 0.00000E+00 2.00000E-03
 -1         5 0.00000E+00 0.00000E+00 0.00000E+00
 -1         6 0.00000E+00 0.00000E+00 0.00000E+00
 -1         7 0.00000E+00 0.00000E+00 2.00000E-03
 -1         8 0.00000E+00 0.00000E+00 2.00000E-03
 -1         9 0.00000E+00 0.00000E+00 0.00000E+00
 -1        10 0.00000E+00 0.00000E+00 1.00000E-03
 -1        11 0.00000E+00 0.00000E+00 2.00000E-03
 -1        12 0.00000E+00 0.00000E+00 1.00000E-03
 -1        13 0.00000E+00 0.00000E+00 0.00000E+00
 -1        14 0.00000E+00 0.00000E+00 0.00000E+00
 -1        15 0.00000E+00 0.00000E+00 2.00000E-03
 -1        16 0.00000E+00 0.00000E+00 2.00000E-03
 -1        17 0.00000E+00 0.00000E+00 0.00000E+00
 -1        18 0.00000E+00 0.00000E+00 1.00000E-03
 -1        19 0.00000E+00 0.00000E+00 2.00000E-03
 -1        20 0.00000E+00 0.00000E+00 1.00000E-03
 -3
    1PSTEP                       782         157           1          
  100CL  257 305377.7447          20                     0  157           1
 -4  STRESS      6    1
 -5  SXX         1    4    1    1
 -5  SYY         1    4    2    2
 -5  SZZ         1    4    3    3
 -5  SXY         1    4    1    2
 -5  SYZ         1    4    2    3
 -5  SZX         1    4    3    1
 -1         1 1.86897E+02 1.86897E+02 2.26181E+02 0.00000E+00 8.10358E-15 1.41245E-14
 -1         2 1.86897E+02 1.86897E+02 2.26181E+02 0.00000E+00-1.27450E-14-1.58850E-14
 -1         3 1.86897E+02 1.86897E+02 2.26181E+02 0.00000E+00-1.98223E-15-2.35420E-14
 -1         4 1.86897E+02 1.86897E+02 2.26181E+02 0.00000E+00-4.53480E-15 3.45977E-14
 -1         5 1.86897E+02 1.86897E+02 2.26181E+02 0.00000E+00 5.81740E-15-4.97404E-15
 -1         6 1.86897E+02 1.86897E+02 2.26181E+02 0.00000E+00-4.20074E-15 1.70266E-16
 -1         7 1.86897E+02 1.86897E+02 2.26181E+02 0.00000E+00 3.79555E-14 2.77570E-14
 -1         8 1.86897E+02 1.86897E+02 2.26181E+02 0.00000E+00-5.76505E-17-7.39566E-15
 -1         9 1.86914E+02 1.86914E+02 2.26202E+02 0.00000E+00-8.22633E-15-4.01879E-15
 -1        10 1.86914E+02 1.86914E+02 2.26202E+02 0.00000E+00 8.65079E-15 7.56734E-15
 -1        11 1.86914E+02 1.86914E+02 2.26202E+02 0.00000E+00 5.00100E-15 4.39535E-15
 -1        12 1.86914E+02 1.86914E+02 2.26202E+02 0.00000E+00 4.75503E-15 3.37434E-15
 -1        13 1.86914E+02 1.86914E+02 2.26202E+02 0.00000E+00-3.38061E-15-4.97729E-16
 -1        14 1.86914E+02 1.86914E+02 2.26202E+02 0.00000E+00 8.05668E-15 1.75632E-15
 -1        15 1.86914E+02 1.86914E+02 2.26202E+02 0.00000E+00-2.28557E-14 4.89635E-15
 -1        16 1.86914E+02 1.86914E+02 2.26202E+02 0.00000E+00 8.74407E-15 8.21053E-15
 -1        17 1.86914E+02 1.86914E+02 2.26202E+02 0.00000E+00-9.56049E-16 4.46888E-15
 -1        18 1.86914E+02 1.86914E+02 2.26202E+02 0.00000E+00 1.19721E-14-1.54227E-14
 -1        19 1.86914E+02 1.86914E+02 2.26202E+02 0.00000E+00 1.02748E-14-2.20219E-15
 -1        20 1.86914E+02 1.86914E+02 2.26202E+02 0.00000E+00 4.52672E-15 8.77956E-15
 -3
    1PSTEP                       783         157           1          
  100CL  257 305377.7447          20                     0  157           1
 -4  TOSTRAIN    6    1
 -5  EXX         1    4    1    1
 -5  EYY         1    4    2    2
 -5  EZZ         1    4    3    3
 -5  EXY         1    4    1    2
 -5  EYZ         1    4    2    3
 -5  EZX         1    4    3    1
 -1         1 0.00000E+00 0.00000E+00 1.99992E-03 0.00000E+00 4.12546E-19 7.19066E-19
 -1         2 0.00000E+00 0.00000E+00 1.99992E-03 0.00000E+00-6.48839E-19-8.08690E-19
 -1         3 0.00000E+00 0.00000E+00 1.99992E-03 0.00000E+00-1.00914E-19-1.19850E-18
 -1         4 0.00000E+00 0.00000E+00 1.99992E-03 0.00000E+00-2.30863E-19 1.76134E-18
 -1         5 0.00000E+00 0.00000E+00 1.99992E-03 0.00000E+00 2.96159E-19-2.53224E-19
 -1         6 0.00000E+00 0.00000E+00 1.99992E-03 0.00000E+00-2.13856E-19 8.66809E-21
 -1         7 0.00000E+00 0.00000E+00 1.99992E-03 0.00000E+00 1.93228E-18 1.41309E-18
 -1         8 0.00000E+00 0.00000E+00 1.99992E-03 0.00000E+00-2.93494E-21-3.76507E-19
 -1         9 0.00000E+00 0.00000E+00 2.00010E-03 0.00000E+00-4.18795E-19-2.04593E-19
 -1        10 0.00000E+00 0.00000E+00 2.00010E-03 0.00000E+00 4.40404E-19 3.85247E-19
 -1        11 0.00000E+00 0.00000E+00 2.00010E-03 0.00000E+00 2.54597E-19 2.23763E-19
 -1        12 0.00000E+00 0.00000E+00 2.00010E-03 0.00000E+00 2.42075E-19 1.71784E-19
 -1        13 0.00000E+00 0.00000E+00 2.00010E-03 0.00000E+00-1.72104E-19-2.53389E-20
 -1        14 0.00000E+00 0.00000E+00 2.00010E-03 0.00000E+00 4.10158E-19 8.94127E-20
 -1        15 0.00000E+00 0.00000E+00 2.00010E-03 0.00000E+00-1.16356E-18 2.49269E-19
 -1        16 0.00000E+00 0.00000E+00 2.00010E-03 0.00000E+00 4.45153E-19 4.17991E-19
 -1        17 0.00000E+00 0.00000E+00 2.00010E-03 0.00000E+00-4.86716E-20 2.27507E-19
 -1        18 0.00000E+00 0.00000E+00 2.00010E-03 0.00000E+00 6.09490E-19-7.85158E-19
 -1        19 0.00000E+00 0.00000E+00 2.00010E-03 0.00000E+00 5.23083E-19-1.12112E-19
 -1        20 0.00000E+00 0.00000E+00 2.00010E-03 0.00000E+00 2.30452E-19 4.46960E-19
 -3
    1PSTEP                       784         157           1          
  100CL  257 305377.7447          20                     0  157           1
 -4  FORC        4    1
 -5  F1          1    2    1    0
 -5  F2          1    2    2    0
 -5  F3          1    2    3    0
 -5  ALL         1    2    0    0    1ALL
 -1         1-1.55754E+01-1.55754E+01 1.88492E+01
 -1         2-1.55754E+01 1.55754E+01 1.88492E+01
 -1         3-1.55754E+01 1.55754E+01-1.88492E+01
 -1         4-1.55754E+01-1.55754E+01-1.88492E+01
 -1         5 1.55754E+01-1.55754E+01 1.88492E+01
 -1         6 1.55754E+01 1.55754E+01 1.88492E+01
 -1         7 1.55754E+01 1.55754E+01-1.88492E+01
 -1         8 1.55754E+01-1.55754E+01-1.88492E+01
 -1         9 6.23016E+01-6.20287E-15-7.53968E+01
 -1        10 6.23016E+01-6.23016E+01 9.10383E-15
 -1        11 6.23016E+01 7.56289E-15 7.53968E+01
 -1        12 6.23016E+01 6.23016E+01 1.92346E-14
 -1        13-3.17340E-15 6.23016E+01-7.53968E+01
 -1        14 5.47821E-15-6.23016E+01-7.53968E+01
 -1        15 8.95469E-15-6.23016E+01 7.53968E+01
 -1        16-8.42844E-15 6.23016E+01 7.53968E+01
 -1        17-6.23016E+01 3.22536E-15-7.53968E+01
 -1        18-6.23016E+01-6.23016E+01 3.55271E-15
 -1        19-6.23016E+01 5.43438E-15 7.53968E+01
 -1        20-6.23016E+01 6.23016E+01 3.10862E-15
 -3
    1PSTEP                       785         157           1          
  100CL  257 305377.7447          20                     0  157           1
 -4  ERROR       1    1
 -5  STR(%)      1    1    0    0
 -1         1 3.21360E-15
 -1         2 3.21360E-15
 -1         3 3.21360E-15
 -1         4 3.21360E-15
 -1         5 3.21360E-15
 -1         6 3.21360E-15
 -1         7 3.21360E-15
 -1         8 3.21360E-15
 -1         9 3.21360E-15
 -1        10 3.21360E-15
 -1        11 3.21360E-15
 -1        12 3.21360E-15
 -1        13 3.21360E-15
 -1        14 3.21360E-15
 -1        15 3.21360E-15
 -1        16 3.21360E-15
 -1        17 3.21360E-15
 -1        18 3.21360E-15
 -1        19 3.21360E-15
 -1        20 3.21360E-15
 -3
    1PSTEP                       786         158           1          
  100CL  258 309109.2726          20                     0  158           1
 -4  DISP        4    1
 -5  D1          1    2    1    0
 -5  D2          1    2    2    0
 -5  D3          1    2    3    0
 -5  ALL         1    2    0    0    1ALL
 -1         1 0.00000E+00 0.00000E+00 0.00000E+00
 -1         2 0.00000E+00 0.00000E+00 0.00000E+00
 -1         3 0.00000E+00 0.00000E+00 2.00000E-03
 -1         4 0.00000E+00 0.00000E+00 2.00000E-03
 -1         5 0.00000E+00 0.00000E+00 0.00000E+00
 -1         6 0.00000E+00 0.00000E+00 0.00000E+00
 -1         7 0.00000E+00 0.00000E+00 2.00000E-03
 -1         8 0.00000E+00 0.00000E+00 2.00000E-03
 -1         9 0.00000E+00 0.00000E+00 0.00000E+00
 -1        10 0.00000E+00 0.00000E+00 1.00000E-03
 -1        11 0.00000E+00 0.00000E+00 2.00000E-03
 -1        12 0.00000E+00 0.00000E+00 1.00000E-03
 -1        13 0.00000E+00 0.00000E+00 0.00000E+00
 -1        14 0.00000E+00 0.00000E+00 0.00000E+00
 -1        15 0.00000E+00 0.00000E+00 2.00000E-03
 -1        16 0.00000E+00 0.00000E+00 2.00000E-03
 -1        17 0.00000E+00 0.00000E+00 0.00000E+00
 -1        18 0.00000E+00 0.00000E+00 1.00000E-03
 -1        19 0.00000E+00 0.00000E+00 2.00000E-03
 -1        20 0.00000E+00 0.00000E+00 1.00000E-03
 -3
    1PSTEP                       787         158           1          
  100CL  258 309109.2726          20                     0  158           1
 -4  STRESS      6    1
 -5  SXX         1    4    1    1
 -5  SYY         1    4    2    2
 -5  SZZ         1    4    3    3
 -5  SXY         1    4    1    2
 -5  SYZ         1    4    2    3
 -5  SZX         1    4    3    1
 -1         1 1.87091E+02 1.87091E+02 2.25794E+02 0.00000E+00 7.98383E-15 1.39158E-14
 -1         2 1.87091E+02 1.87091E+02 2.25794E+02 0.00000E+00-1.25567E-14-1.56502E-14
 -1         3 1.87091E+02 1.87091E+02 2.25794E+02 0.00000E+00-1.95294E-15-2.31941E-14
 -1         4 1.87091E+02 1.87091E+02 2.25794E+02 0.00000E+00-4.46779E-15 3.40864E-14
 -1         5 1.87091E+02 1.87091E+02 2.25794E+02 0.00000E+00 5.73143E-15-4.90054E-15
 -1         6 1.87091E+02 1.87091E+02 2.25794E+02 0.00000E+00-4.13867E-15 1.67750E-16
 -1         7 1.87091E+02 1.87091E+02 2.25794E+02 0.00000E+00 3.73947E-14 2.73469E-14
 -1         8 1.87091E+02 1.87091E+02 2.25794E+02 0.00000E+00-5.67986E-17-7.28638E-15
 -1         9 1.87108E+02 1.87108E+02 2.25815E+02 0.00000E+00-8.10477E-15-3.95940E-15
 -1        10 1.87108E+02 1.87108E+02 2.25815E+02 0.00000E+00 8.52296E-15 7.45552E-15
 -1        11 1.87108E+02 1.87108E+02 2.25815E+02 0.00000E+00 4.92710E-15 4.33040E-15
 -1        12 1.87108E+02 1.87108E+02 2.25815E+02 0.00000E+00 4.68477E-15 3.32447E-15
 -1        13 1.87108E+02 1.87108E+02 2.25815E+02 0.00000E+00-3.33066E-15-4.90374E-16
 -1        14 1.87108E+02 1.87108E+02 2.25815E+02 0.00000E+00 7.93763E-15 1.73037E-15
 -1        15 1.87108E+02 1.87108E+02 2.25815E+02 0.00000E+00-2.25180E-14 4.82400E-15
 -1        16 1.87108E+02 1.87108E+02 2.25815E+02 0.00000E+00 8.61486E-15 8.08920E-15
 -1        17 1.87108E+02 1.87108E+02 2.25815E+02 0.00000E+00-9.41921E-16 4.40285E-15
 -1        18 1.87108E+02 1.87108E+02 2.25815E+02 0.00000E+00 1.17952E-14-1.51948E-14
 -1        19 1.87108E+02 1.87108E+02 2.25815E+02 0.00000E+00 1.01230E-14-2.16965E-15
 -1        20 1.87108E+02 1.87108E+02 2.25815E+02 0.00000E+00 4.45983E-15 8.64983E-15
 -3
    1PSTEP                       788         158           1          
  100CL  258 309109.2726          20                     0  158           1
 -4  TOSTRAIN    6    1
 -5  EXX         1    4    1    1
 -5  EYY         1    4    2    2
 -5  EZZ         1    4    3    3
 -5  EXY         1    4    1    2
 -5  EYZ         1    4    2    3
 -5  EZX         1    4    3    1
 -1         1 0.00000E+00 0.00000E+00 1.99992E-03 0.00000E+00 4.12546E-19 7.19066E-19
 -1         2 0.00000E+00 0.00000E+00 1.99992E-03 0.00000E+00-6.48839E-19-8.08690E-19
 -1         3 0.00000E+00 0.00000E+00 1.99992E-03 0.00000E+00-1.00914E-19-1.19850E-18
 -1         4 0.00000E+00 0.00000E+00 1.99992E-03 0.00000E+00-2.30863E-19 1.76134E-18
 -1         5 0.00000E+00 0.00000E+00 1.99992E-03 0.00000E+00 2.96159E-19-2.53224E-19
 -1         6 0.00000E+00 0.00000E+00 1.99992E-03 0.00000E+00-2.13856E-19 8.66809E-21
 -1         7 0.00000E+00 0.00000E+00 1.99992E-03 0.00000E+00 1.93228E-18 1.41309E-18
 -1         8 0.00000E+00 0.00000E+00 1.99992E-03 0.00000E+00-2.93494E-21-3.76507E-19
 -1         9 0.00000E+00 0.00000E+00 2.00010E-03 0.00000E+00-4.18795E-19-2.04593E-19
 -1        10 0.00000E+00 0.00000E+00 2.00010E-03 0.00000E+00 4.40404E-19 3.85247E-19
 -1        11 0.00000E+00 0.00000E+00 2.00010E-03 0.00000E+00 2.54597E-19 2.23763E-19
 -1        12 0.00000E+00 0.00000E+00 2.00010E-03 0.00000E+00 2.42075E-19 1.71784E-19
 -1        13 0.00000E+00 0.00000E+00 2.00010E-03 0.00000E+00-1.72104E-19-2.53389E-20
 -1        14 0.00000E+00 0.00000E+00 2.00010E-03 0.00000E+00 4.10158E-19 8.94127E-20
 -1        15 0.00000E+00 0.00000E+00 2.00010E-03 0.00000E+00-1.16356E-18 2.49269E-19
 -1        16 0.00000E+00 0.00000E+00 2.00010E-03 0.00000E+00 4.45153E-19 4.17991E-19
 -1        17 0.00000E+00 0.00000E+00 2.00010E-03 0.00000E+00-4.86716E-20 2.27507E-19
 -1        18 0.00000E+00 0.00000E+00 2.00010E-03 0.00000E+00 6.09490E-19-7.85158E-19
 -1        19 0.00000E+00 0.00000E+00 2.00010E-03 0.00000E+00 5.23083E-19-1.12112E-19
 -1        20 0.00000E+00 0.00000E+00 2.00010E-03 0.00000E+00 2.30452E-19 4.46960E-19
 -3
    1PSTEP                       789         158           1          
  100CL  258 309109.2726          20                     0  158           1
 -4  FORC        4    1
 -5  F1          1    2    1    0
 -5  F2          1    2    2    0
 -5  F3          1    2    3    0
 -5  ALL         1    2    0    0    1ALL
 -1         1-1.55915E+01-1.55915E+01 1.88170E+01
 -1         2-1.55915E+01 1.55915E+01 1.88170E+01
 -1         3-1.55915E+01 1.55915E+01-1.88170E+01
 -1         4-1.55915E+01-1.55915E+01-1.88170E+01
 -1         5 1.55915E+01-1.55915E+01 1.88170E+01
 -1         6 1.55915E+01 1.55915E+01 1.88170E+01
 -1         7 1.55915E+01 1.55915E+01-1.88170E+01
 -1         8 1.55915E+01-1.55915E+01-1.88170E+01
 -1         9 6.23661E+01-3.78794E-15-7.52678E+01
 -1        10 6.23661E+01-6.23661E+01 7.54952E-15
 -1        11 6.23661E+01 2.45567E-15 7.52678E+01
 -1        12 6.23661E+01 6.23661E+01 2.17604E-14
 -1        13-1.31375E-14 6.23661E+01-7.52678E+01
 -1        14 1.79138E-14-6.23661E+01-7.52678E+01
 -1        15 8.95361E-15-6.23661E+01 7.52678E+01
 -1        16 7.78068E-15 6.23661E+01 7.52678E+01
 -1        17-6.23661E+01 3.44896E-15-7.52678E+01
 -1        18-6.23661E+01-6.23661E+01 1.77636E-15
 -1        19-6.23661E+01 1.88011E-15 7.52678E+01
 -1        20-6.23661E+01 6.23661E+01 3.55271E-15
 -3
    1PSTEP                       790         158           1          
  100CL  258 309109.2726          20                     0  158           1
 -4  ERROR       1    1
 -5  STR(%)      1    1    0    0
 -1         1 2.25337E-14
 -1         2 2.25337E-14
 -1         3 2.25337E-14
 -1         4 2.25337E-14
 -1         5 2.25337E-14
 -1         6 2.25337E-14
 -1         7 2.25337E-14
 -1         8 2.25337E-14
 -1         9 2.25337E-14
 -1        10 2.25337E-14
 -1        11 2.25337E-14
 -1        12 2.25337E-14
 -1        13 2.25337E-14
 -1        14 2.25337E-14
 -1        15 2.25337E-14
 -1        16 2.25337E-14
 -1        17 2.25337E-14
 -1        18 2.25337E-14
 -1        19 2.25337E-14
 -1        20 2.25337E-14
 -3
    1PSTEP                       791         159           1          
  100CL  259 311592.4739          20                     0  159           1
 -4  DISP        4    1
 -5  D1          1    2    1    0
 -5  D2          1    2    2    0
 -5  D3          1    2    3    0
 -5  ALL         1    2    0    0    1ALL
 -1         1 0.00000E+00 0.00000E+00 0.00000E+00
 -1         2 0.00000E+00 0.00000E+00 0.00000E+00
 -1         3 0.00000E+00 0.00000E+00 2.00000E-03
 -1         4 0.00000E+00 0.00000E+00 2.00000E-03
 -1         5 0.00000E+00 0.00000E+00 0.00000E+00
 -1         6 0.00000E+00 0.00000E+00 0.00000E+00
 -1         7 0.00000E+00 0.00000E+00 2.00000E-03
 -1         8 0.00000E+00 0.00000E+00 2.00000E-03
 -1         9 0.00000E+00 0.00000E+00 0.00000E+00
 -1        10 0.00000E+00 0.00000E+00 1.00000E-03
 -1        11 0.00000E+00 0.00000E+00 2.00000E-03
 -1        12 0.00000E+00 0.00000E+00 1.00000E-03
 -1        13 0.00000E+00 0.00000E+00 0.00000E+00
 -1        14 0.00000E+00 0.00000E+00 0.00000E+00
 -1        15 0.00000E+00 0.00000E+00 2.00000E-03
 -1        16 0.00000E+00 0.00000E+00 2.00000E-03
 -1        17 0.00000E+00 0.00000E+00 0.00000E+00
 -1        18 0.00000E+00 0.00000E+00 1.00000E-03
 -1        19 0.00000E+00 0.00000E+00 2.00000E-03
 -1        20 0.00000E+00 0.00000E+00 1.00000E-03
 -3
    1PSTEP                       792         159           1          
  100CL  259 311592.4739          20                     0  159           1
 -4  STRESS      6    1
 -5  SXX         1    4    1    1
 -5  SYY         1    4    2    2
 -5  SZZ         1    4    3    3
 -5  SXY         1    4    1    2
 -5  SYZ         1    4    2    3
 -5  SZX         1    4    3    1
 -1         1 1.87218E+02 1.87218E+02 2.25539E+02 0.00000E+00 7.90493E-15 1.37783E-14
 -1         2 1.87218E+02 1.87218E+02 2.25539E+02 0.00000E+00-1.24326E-14-1.54956E-14
 -1         3 1.87218E+02 1.87218E+02 2.25539E+02 0.00000E+00-1.93364E-15-2.29649E-14
 -1         4 1.87218E+02 1.87218E+02 2.25539E+02 0.00000E+00-4.42364E-15 3.37496E-14
 -1         5 1.87218E+02 1.87218E+02 2.25539E+02 0.00000E+00 5.67479E-15-4.85211E-15
 -1         6 1.87218E+02 1.87218E+02 2.25539E+02 0.00000E+00-4.09777E-15 1.66092E-16
 -1         7 1.87218E+02 1.87218E+02 2.25539E+02 0.00000E+00 3.70251E-14 2.70766E-14
 -1         8 1.87218E+02 1.87218E+02 2.25539E+02 0.00000E+00-5.62373E-17-7.21437E-15
 -1         9 1.87235E+02 1.87235E+02 2.25560E+02 0.00000E+00-8.02467E-15-3.92027E-15
 -1        10 1.87235E+02 1.87235E+02 2.25560E+02 0.00000E+00 8.43874E-15 7.38184E-15
 -1        11 1.87235E+02 1.87235E+02 2.25560E+02 0.00000E+00 4.87841E-15 4.28760E-15
 -1        12 1.87235E+02 1.87235E+02 2.25560E+02 0.00000E+00 4.63847E-15 3.29162E-15
 -1        13 1.87235E+02 1.87235E+02 2.25560E+02 0.00000E+00-3.29775E-15-4.85528E-16
 -1        14 1.87235E+02 1.87235E+02 2.25560E+02 0.00000E+00 7.85918E-15 1.71327E-15
 -1        15 1.87235E+02 1.87235E+02 2.25560E+02 0.00000E+00-2.22955E-14 4.77632E-15
 -1        16 1.87235E+02 1.87235E+02 2.25560E+02 0.00000E+00 8.52973E-15 8.00926E-15
 -1        17 1.87235E+02 1.87235E+02 2.25560E+02 0.00000E+00-9.32613E-16 4.35934E-15
 -1        18 1.87235E+02 1.87235E+02 2.25560E+02 0.00000E+00 1.16786E-14-1.50447E-14
 -1        19 1.87235E+02 1.87235E+02 2.25560E+02 0.00000E+00 1.00230E-14-2.14821E-15
 -1        20 1.87235E+02 1.87235E+02 2.25560E+02 0.00000E+00 4.41576E-15 8.56435E-15
 -3
    1PSTEP                       793         159           1          
  100CL  259 311592.4739          20                     0  159           1
 -4  TOSTRAIN    6    1
 -5  EXX         1    4    1    1
 -5  EYY         1    4    2    2
 -5  EZZ         1    4    3    3
 -5  EXY         1    4    1    2
 -5  EYZ         1    4    2    3
 -5  EZX         1    4    3    1
 -1         1 0.00000E+00 0.00000E+00 1.99992E-03 0.00000E+00 4.12546E-19 7.19066E-19
 -1         2 0.00000E+00 0.00000E+00 1.99992E-03 0.00000E+00-6.48839E-19-8.08690E-19
 -1         3 0.00000E+00 0.00000E+00 1.99992E-03 0.00000E+00-1.00914E-19-1.19850E-18
 -1         4 0.00000E+00 0.00000E+00 1.99992E-03 0.00000E+00-2.30863E-19 1.76134E-18
 -1         5 0.00000E+00 0.00000E+00 1.99992E-03 0.00000E+00 2.96159E-19-2.53224E-19
 -1         6 0.00000E+00 0.00000E+00 1.99992E-03 0.00000E+00-2.13856E-19 8.66809E-21
 -1         7 0.00000E+00 0.00000E+00 1.99992E-03 0.00000E+00 1.93228E-18 1.41309E-18
 -1         8 0.00000E+00 0.00000E+00 1.99992E-03 0.00000E+00-2.93494E-21-3.76507E-19
 -1         9 0.00000E+00 0.00000E+00 2.00010E-03 0.00000E+00-4.18795E-19-2.04593E-19
 -1        10 0.00000E+00 0.00000E+00 2.00010E-03 0.00000E+00 4.40404E-19 3.85247E-19
 -1        11 0.00000E+00 0.00000E+00 2.00010E-03 0.00000E+00 2.54597E-19 2.23763E-19
 -1        12 0.00000E+00 0.00000E+00 2.00010E-03 0.00000E+00 2.42075E-19 1.71784E-19
 -1        13 0.00000E+00 0.00000E+00 2.00010E-03 0.00000E+00-1.72104E-19-2.53389E-20
 -1        14 0.00000E+00 0.00000E+00 2.00010E-03 0.00000E+00 4.10158E-19 8.94127E-20
 -1        15 0.00000E+00 0.00000E+00 2.00010E-03 0.00000E+00-1.16356E-18 2.49269E-19
 -1        16 0.00000E+00 0.00000E+00 2.00010E-03 0.00000E+00 4.45153E-19 4.17991E-19
 -1        17 0.00000E+00 0.00000E+00 2.00010E-03 0.00000E+00-4.86716E-20 2.27507E-19
 -1        18 0.00000E+00 0.00000E+00 2.00010E-03 0.00000E+00 6.09490E-19-7.85158E-19
 -1        19 0.00000E+00 0.00000E+00 2.00010E-03 0.00000E+00 5.23083E-19-1.12112E-19
 -1        20 0.00000E+00 0.00000E+00 2.00010E-03 0.00000E+00 2.30452E-19 4.46960E-19
 -3
    1PSTEP                       794         159           1          
  100CL  259 311592.4739          20                     0  159           1
 -4  FORC        4    1
 -5  F1          1    2    1    0
 -5  F2          1    2    2    0
 -5  F3          1    2    3    0
 -5  ALL         1    2    0    0    1ALL
 -1         1-1.56021E+01-1.56021E+01 1.87957E+01
 -1         2-1.56021E+01 1.56021E+01 1.87957E+01
 -1         3-1.56021E+01 1.56021E+01-1.87957E+01
 -1         4-1.56021E+01-1.56021E+01-1.87957E+01
 -1         5 1.56021E+01-1.56021E+01 1.87957E+01
 -1         6 1.56021E+01 1.56021E+01 1.87957E+01
 -1         7 1.56021E+01 1.56021E+01-1.87957E+01
 -1         8 1.56021E+01-1.56021E+01-1.87957E+01
 -1         9 6.24086E+01-4.42618E-15-7.51828E+01
 -1        10 6.24086E+01-6.24086E+01 9.10383E-15
 -1        11 6.24086E+01 5.56416E-15 7.51828E+01
 -1        12 6.24086E+01 6.24086E+01 1.35447E-14
 -1        13-6.69813E-15 6.24086E+01-7.51828E+01
 -1        14 1.23634E-14-6.24086E+01-7.51828E+01
 -1        15 1.84747E-15-6.24086E+01 7.51828E+01
 -1        16-3.76573E-15 6.24086E+01 7.51828E+01
 -1        17-6.24086E+01 5.00430E-15-7.51828E+01
 -1        18-6.24086E+01-6.24086E+01 3.55271E-15
 -1        19-6.24086E+01 3.65544E-15 7.51828E+01
 -1        20-6.24086E+01 6.24086E+01-1.99840E-15
 -3
    1PSTEP                       795         159           1          
  100CL  259 311592.4739          20                     0  159           1
 -4  ERROR       1    1
 -5  STR(%)      1    1    0    0
 -1         1 3.09384E-14
 -1         2 3.09384E-14
 -1         3 3.09384E-14
 -1         4 3.09384E-14
 -1         5 3.09384E-14
 -1         6 3.09384E-14
 -1         7 3.09384E-14
 -1         8 3.09384E-14
 -1         9 3.09384E-14
 -1        10 3.09384E-14
 -1        11 3.09384E-14
 -1        12 3.09384E-14
 -1        13 3.09384E-14
 -1        14 3.09384E-14
 -1        15 3.09384E-14
 -1        16 3.09384E-14
 -1        17 3.09384E-14
 -1        18 3.09384E-14
 -1        19 3.09384E-14
 -1        20 3.09384E-14
 -3
    1PSTEP                       796         160           1          
  100CL  260 314075.6753          20                     0  160           1
 -4  DISP        4    1
 -5  D1          1    2    1    0
 -5  D2          1    2    2    0
 -5  D3          1    2    3    0
 -5  ALL         1    2    0    0    1ALL
 -1         1 0.00000E+00 0.00000E+00 0.00000E+00
 -1         2 0.00000E+00 0.00000E+00 0.00000E+00
 -1         3 0.00000E+00 0.00000E+00 2.00000E-03
 -1         4 0.00000E+00 0.00000E+00 2.00000E-03
 -1         5 0.00000E+00 0.00000E+00 0.00000E+00
 -1         6 0.00000E+00 0.00000E+00 0.00000E+00
 -1         7 0.00000E+00 0.00000E+00 2.00000E-03
 -1         8 0.00000E+00 0.00000E+00 2.00000E-03
 -1         9 0.00000E+00 0.00000E+00 0.00000E+00
 -1        10 0.00000E+00 0.00000E+00 1.00000E-03
 -1        11 0.00000E+00 0.00000E+00 2.00000E-03
 -1        12 0.00000E+00 0.00000E+00 1.00000E-03
 -1        13 0.00000E+00 0.00000E+00 0.00000E+00
 -1        14 0.00000E+00 0.00000E+00 0.00000E+00
 -1        15 0.00000E+00 0.00000E+00 2.00000E-03
 -1        16 0.00000E+00 0.00000E+00 2.00000E-03
 -1        17 0.00000E+00 0.00000E+00 0.00000E+00
 -1        18 0.00000E+00 0.00000E+00 1.00000E-03
 -1        19 0.00000E+00 0.00000E+00 2.00000E-03
 -1        20 0.00000E+00 0.00000E+00 1.00000E-03
 -3
    1PSTEP                       797         160           1          
  100CL  260 314075.6753          20                     0  160           1
 -4  STRESS      6    1
 -5  SXX         1    4    1    1
 -5  SYY         1    4    2    2
 -5  SZZ         1    4    3    3
 -5  SXY         1    4    1    2
 -5  SYZ         1    4    2    3
 -5  SZX         1    4    3    1
 -1         1 1.87345E+02 1.87345E+02 2.25287E+02 0.00000E+00 7.82681E-15 1.36421E-14
 -1         2 1.87345E+02 1.87345E+02 2.25287E+02 0.00000E+00-1.23098E-14-1.53424E-14
 -1         3 1.87345E+02 1.87345E+02 2.25287E+02 0.00000E+00-1.91453E-15-2.27379E-14
 -1         4 1.87345E+02 1.87345E+02 2.25287E+02 0.00000E+00-4.37992E-15 3.34160E-14
 -1         5 1.87345E+02 1.87345E+02 2.25287E+02 0.00000E+00 5.61871E-15-4.80416E-15
 -1         6 1.87345E+02 1.87345E+02 2.25287E+02 0.00000E+00-4.05728E-15 1.64451E-16
 -1         7 1.87345E+02 1.87345E+02 2.25287E+02 0.00000E+00 3.66592E-14 2.68090E-14
 -1         8 1.87345E+02 1.87345E+02 2.25287E+02 0.00000E+00-5.56815E-17-7.14308E-15
 -1         9 1.87361E+02 1.87361E+02 2.25307E+02 0.00000E+00-7.94537E-15-3.88153E-15
 -1        10 1.87361E+02 1.87361E+02 2.25307E+02 0.00000E+00 8.35534E-15 7.30889E-15
 -1        11 1.87361E+02 1.87361E+02 2.25307E+02 0.00000E+00 4.83020E-15 4.24523E-15
 -1        12 1.87361E+02 1.87361E+02 2.25307E+02 0.00000E+00 4.59263E-15 3.25909E-15
 -1        13 1.87361E+02 1.87361E+02 2.25307E+02 0.00000E+00-3.26516E-15-4.80730E-16
 -1        14 1.87361E+02 1.87361E+02 2.25307E+02 0.00000E+00 7.78152E-15 1.69634E-15
 -1        15 1.87361E+02 1.87361E+02 2.25307E+02 0.00000E+00-2.20751E-14 4.72912E-15
 -1        16 1.87361E+02 1.87361E+02 2.25307E+02 0.00000E+00 8.44543E-15 7.93011E-15
 -1        17 1.87361E+02 1.87361E+02 2.25307E+02 0.00000E+00-9.23396E-16 4.31626E-15
 -1        18 1.87361E+02 1.87361E+02 2.25307E+02 0.00000E+00 1.15632E-14-1.48960E-14
 -1        19 1.87361E+02 1.87361E+02 2.25307E+02 0.00000E+00 9.92392E-15-2.12698E-15
 -1        20 1.87361E+02 1.87361E+02 2.25307E+02 0.00000E+00 4.37212E-15 8.47971E-15
 -3
    1PSTEP                       798         160           1          
  100CL  260 314075.6753          20                     0  160           1
 -4  TOSTRAIN    6    1
 -5  EXX         1    4    1    1
 -5  EYY         1    4    2    2
 -5  EZZ         1    4    3    3
 -5  EXY         1    4    1    2
 -5  EYZ         1    4    2    3
 -5  EZX         1    4    3    1
 -1         1 0.00000E+00 0.00000E+00 1.99992E-03 0.00000E+00 4.12546E-19 7.19066E-19
 -1         2 0.00000E+00 0.00000E+00 1.99992E-03 0.00000E+00-6.48839E-19-8.08690E-19
 -1         3 0.00000E+00 0.00000E+00 1.99992E-03 0.00000E+00-1.00914E-19-1.19850E-18
 -1         4 0.00000E+00 0.00000E+00 1.99992E-03 0.00000E+00-2.30863E-19 1.76134E-18
 -1         5 0.00000E+00 0.00000E+00 1.99992E-03 0.00000E+00 2.96159E-19-2.53224E-19
 -1         6 0.00000E+00 0.00000E+00 1.99992E-03 0.00000E+00-2.13856E-19 8.66809E-21
 -1         7 0.00000E+00 0.00000E+00 1.99992E-03 0.00000E+00 1.93228E-18 1.41309E-18
 -1         8 0.00000E+00 0.00000E+00 1.99992E-03 0.00000E+00-2.93494E-21-3.76507E-19
 -1         9 0.00000E+00 0.00000E+00 2.00010E-03 0.00000E+00-4.18795E-19-2.04593E-19
 -1        10 0.00000E+00 0.00000E+00 2.00010E-03 0.00000E+00 4.40404E-19 3.85247E-19
 -1        11 0.00000E+00 0.00000E+00 2.00010E-03 0.00000E+00 2.54597E-19 2.23763E-19
 -1        12 0.00000E+00 0.00000E+00 2.00010E-03 0.00000E+00 2.42075E-19 1.71784E-19
 -1        13 0.00000E+00 0.00000E+00 2.00010E-03 0.00000E+00-1.72104E-19-2.53389E-20
 -1        14 0.00000E+00 0.00000E+00 2.00010E-03 0.00000E+00 4.10158E-19 8.94127E-20
 -1        15 0.00000E+00 0.00000E+00 2.00010E-03 0.00000E+00-1.16356E-18 2.49269E-19
 -1        16 0.00000E+00 0.00000E+00 2.00010E-03 0.00000E+00 4.45153E-19 4.17991E-19
 -1        17 0.00000E+00 0.00000E+00 2.00010E-03 0.00000E+00-4.86716E-20 2.27507E-19
 -1        18 0.00000E+00 0.00000E+00 2.00010E-03 0.00000E+00 6.09490E-19-7.85158E-19
 -1        19 0.00000E+00 0.00000E+00 2.00010E-03 0.00000E+00 5.23083E-19-1.12112E-19
 -1        20 0.00000E+00 0.00000E+00 2.00010E-03 0.00000E+00 2.30452E-19 4.46960E-19
 -3
    1PSTEP                       799         160           1          
  100CL  260 314075.6753          20                     0  160           1
 -4  FORC        4    1
 -5  F1          1    2    1    0
 -5  F2          1    2    2    0
 -5  F3          1    2    3    0
 -5  ALL         1    2    0    0    1ALL
 -1         1-1.56127E+01-1.56127E+01 1.87747E+01
 -1         2-1.56127E+01 1.56127E+01 1.87747E+01
 -1         3-1.56127E+01 1.56127E+01-1.87747E+01
 -1         4-1.56127E+01-1.56127E+01-1.87747E+01
 -1         5 1.56127E+01-1.56127E+01 1.87747E+01
 -1         6 1.56127E+01 1.56127E+01 1.87747E+01
 -1         7 1.56127E+01 1.56127E+01-1.87747E+01
 -1         8 1.56127E+01-1.56127E+01-1.87747E+01
 -1         9 6.24507E+01-4.67586E-15-7.50987E+01
 -1        10 6.24507E+01-6.24507E+01 5.55112E-15
 -1        11 6.24507E+01 4.57008E-16 7.50987E+01
 -1        12 6.24507E+01 6.24507E+01 1.85130E-14
 -1        13-9.75115E-15 6.24507E+01-7.50987E+01
 -1        14 1.36964E-14-6.24507E+01-7.50987E+01
 -1        15 5.39948E-15-6.24507E+01 7.50987E+01
 -1        16-4.65399E-15 6.24507E+01 7.50987E+01
 -1        17-6.24507E+01 5.22736E-15-7.50987E+01
 -1        18-6.24507E+01-6.24507E+01 7.10543E-15
 -1        19-6.24507E+01 1.01709E-16 7.50987E+01
 -1        20-6.24507E+01 6.24507E+01 3.55271E-15
 -3
    1PSTEP                       800         160           1          
  100CL  260 314075.6753          20                     0  160           1
 -4  ERROR       1    1
 -5  STR(%)      1    1    0    0
 -1         1 9.67907E-15
 -1         2 9.67907E-15
 -1         3 9.67907E-15
 -1         4 9.67907E-15
 -1         5 9.67907E-15
 -1         6 9.67907E-15
 -1         7 9.67907E-15
 -1         8 9.67907E-15
 -1         9 9.67907E-15
 -1        10 9.67907E-15
 -1        11 9.67907E-15
 -1        12 9.67907E-15
 -1        13 9.67907E-15
 -1        14 9.67907E-15
 -1        15 9.67907E-15
 -1        16 9.67907E-15
 -1        17 9.67907E-15
 -1        18 9.67907E-15
 -1        19 9.67907E-15
 -1        20 9.67907E-15
 -3
    1PSTEP                       801         161           1          
  100CL  261 317800.4774          20                     0  161           1
 -4  DISP        4    1
 -5  D1          1    2    1    0
 -5  D2          1    2    2    0
 -5  D3          1    2    3    0
 -5  ALL         1    2    0    0    1ALL
 -1         1 0.00000E+00 0.00000E+00 0.00000E+00
 -1         2 0.00000E+00 0.00000E+00 0.00000E+00
 -1         3 0.00000E+00 0.00000E+00 2.00000E-03
 -1         4 0.00000E+00 0.00000E+00 2.00000E-03
 -1         5 0.00000E+00 0.00000E+00 0.00000E+00
 -1         6 0.00000E+00 0.00000E+00 0.00000E+00
 -1         7 0.00000E+00 0.00000E+00 2.00000E-03
 -1         8 0.00000E+00 0.00000E+00 2.00000E-03
 -1         9 0.00000E+00 0.00000E+00 0.00000E+00
 -1        10 0.00000E+00 0.00000E+00 1.00000E-03
 -1        11 0.00000E+00 0.00000E+00 2.00000E-03
 -1        12 0.00000E+00 0.00000E+00 1.00000E-03
 -1        13 0.00000E+00 0.00000E+00 0.00000E+00
 -1        14 0.00000E+00 0.00000E+00 0.00000E+00
 -1        15 0.00000E+00 0.00000E+00 2.00000E-03
 -1        16 0.00000E+00 0.00000E+00 2.00000E-03
 -1        17 0.00000E+00 0.00000E+00 0.00000E+00
 -1        18 0.00000E+00 0.00000E+00 1.00000E-03
 -1        19 0.00000E+00 0.00000E+00 2.00000E-03
 -1        20 0.00000E+00 0.00000E+00 1.00000E-03
 -3
    1PSTEP                       802         161           1          
  100CL  261 317800.4774          20                     0  161           1
 -4  STRESS      6    1
 -5  SXX         1    4    1    1
 -5  SYY         1    4    2    2
 -5  SZZ         1    4    3    3
 -5  SXY         1    4    1    2
 -5  SYZ         1    4    2    3
 -5  SZX         1    4    3    1
 -1         1 1.87531E+02 1.87531E+02 2.24914E+02 0.00000E+00 7.71136E-15 1.34409E-14
 -1         2 1.87531E+02 1.87531E+02 2.24914E+02 0.00000E+00-1.21282E-14-1.51161E-14
 -1         3 1.87531E+02 1.87531E+02 2.24914E+02 0.00000E+00-1.88629E-15-2.24025E-14
 -1         4 1.87531E+02 1.87531E+02 2.24914E+02 0.00000E+00-4.31532E-15 3.29231E-14
 -1         5 1.87531E+02 1.87531E+02 2.24914E+02 0.00000E+00 5.53583E-15-4.73330E-15
 -1         6 1.87531E+02 1.87531E+02 2.24914E+02 0.00000E+00-3.99743E-15 1.62025E-16
 -1         7 1.87531E+02 1.87531E+02 2.24914E+02 0.00000E+00 3.61185E-14 2.64136E-14
 -1         8 1.87531E+02 1.87531E+02 2.24914E+02 0.00000E+00-5.48602E-17-7.03771E-15
 -1         9 1.87548E+02 1.87548E+02 2.24934E+02 0.00000E+00-7.82817E-15-3.82428E-15
 -1        10 1.87548E+02 1.87548E+02 2.24934E+02 0.00000E+00 8.23209E-15 7.20108E-15
 -1        11 1.87548E+02 1.87548E+02 2.24934E+02 0.00000E+00 4.75895E-15 4.18261E-15
 -1        12 1.87548E+02 1.87548E+02 2.24934E+02 0.00000E+00 4.52489E-15 3.21102E-15
 -1        13 1.87548E+02 1.87548E+02 2.24934E+02 0.00000E+00-3.21699E-15-4.73639E-16
 -1        14 1.87548E+02 1.87548E+02 2.24934E+02 0.00000E+00 7.66673E-15 1.67131E-15
 -1        15 1.87548E+02 1.87548E+02 2.24934E+02 0.00000E+00-2.17495E-14 4.65937E-15
 -1        16 1.87548E+02 1.87548E+02 2.24934E+02 0.00000E+00 8.32086E-15 7.81314E-15
 -1        17 1.87548E+02 1.87548E+02 2.24934E+02 0.00000E+00-9.09776E-16 4.25259E-15
 -1        18 1.87548E+02 1.87548E+02 2.24934E+02 0.00000E+00 1.13927E-14-1.46763E-14
 -1        19 1.87548E+02 1.87548E+02 2.24934E+02 0.00000E+00 9.77753E-15-2.09561E-15
 -1        20 1.87548E+02 1.87548E+02 2.24934E+02 0.00000E+00 4.30763E-15 8.35463E-15
 -3
    1PSTEP                       803         161           1          
  100CL  261 317800.4774          20                     0  161           1
 -4  TOSTRAIN    6    1
 -5  EXX         1    4    1    1
 -5  EYY         1    4    2    2
 -5  EZZ         1    4    3    3
 -5  EXY         1    4    1    2
 -5  EYZ         1    4    2    3
 -5  EZX         1    4    3    1
 -1         1 0.00000E+00 0.00000E+00 1.99992E-03 0.00000E+00 4.12546E-19 7.19066E-19
 -1         2 0.00000E+00 0.00000E+00 1.99992E-03 0.00000E+00-6.48839E-19-8.08690E-19
 -1         3 0.00000E+00 0.00000E+00 1.99992E-03 0.00000E+00-1.00914E-19-1.19850E-18
 -1         4 0.00000E+00 0.00000E+00 1.99992E-03 0.00000E+00-2.30863E-19 1.76134E-18
 -1         5 0.00000E+00 0.00000E+00 1.99992E-03 0.00000E+00 2.96159E-19-2.53224E-19
 -1         6 0.00000E+00 0.00000E+00 1.99992E-03 0.00000E+00-2.13856E-19 8.66809E-21
 -1         7 0.00000E+00 0.00000E+00 1.99992E-03 0.00000E+00 1.93228E-18 1.41309E-18
 -1         8 0.00000E+00 0.00000E+00 1.99992E-03 0.00000E+00-2.93494E-21-3.76507E-19
 -1         9 0.00000E+00 0.00000E+00 2.00010E-03 0.00000E+00-4.18795E-19-2.04593E-19
 -1        10 0.00000E+00 0.00000E+00 2.00010E-03 0.00000E+00 4.40404E-19 3.85247E-19
 -1        11 0.00000E+00 0.00000E+00 2.00010E-03 0.00000E+00 2.54597E-19 2.23763E-19
 -1        12 0.00000E+00 0.00000E+00 2.00010E-03 0.00000E+00 2.42075E-19 1.71784E-19
 -1        13 0.00000E+00 0.00000E+00 2.00010E-03 0.00000E+00-1.72104E-19-2.53389E-20
 -1        14 0.00000E+00 0.00000E+00 2.00010E-03 0.00000E+00 4.10158E-19 8.94127E-20
 -1        15 0.00000E+00 0.00000E+00 2.00010E-03 0.00000E+00-1.16356E-18 2.49269E-19
 -1        16 0.00000E+00 0.00000E+00 2.00010E-03 0.00000E+00 4.45153E-19 4.17991E-19
 -1        17 0.00000E+00 0.00000E+00 2.00010E-03 0.00000E+00-4.86716E-20 2.27507E-19
 -1        18 0.00000E+00 0.00000E+00 2.00010E-03 0.00000E+00 6.09490E-19-7.85158E-19
 -1        19 0.00000E+00 0.00000E+00 2.00010E-03 0.00000E+00 5.23083E-19-1.12112E-19
 -1        20 0.00000E+00 0.00000E+00 2.00010E-03 0.00000E+00 2.30452E-19 4.46960E-19
 -3
    1PSTEP                       804         161           1          
  100CL  261 317800.4774          20                     0  161           1
 -4  FORC        4    1
 -5  F1          1    2    1    0
 -5  F2          1    2    2    0
 -5  F3          1    2    3    0
 -5  ALL         1    2    0    0    1ALL
 -1         1-1.56282E+01-1.56282E+01 1.87436E+01
 -1         2-1.56282E+01 1.56282E+01 1.87436E+01
 -1         3-1.56282E+01 1.56282E+01-1.87436E+01
 -1         4-1.56282E+01-1.56282E+01-1.87436E+01
 -1         5 1.56282E+01-1.56282E+01 1.87436E+01
 -1         6 1.56282E+01 1.56282E+01 1.87436E+01
 -1         7 1.56282E+01 1.56282E+01-1.87436E+01
 -1         8 1.56282E+01-1.56282E+01-1.87436E+01
 -1         9 6.25129E+01-8.22838E-15-7.49743E+01
 -1        10 6.25129E+01-6.25129E+01 8.65974E-15
 -1        11 6.25129E+01 3.78749E-15 7.49743E+01
 -1        12 6.25129E+01 6.25129E+01 1.80134E-14
 -1        13-1.88826E-14 6.25129E+01-7.49743E+01
 -1        14 7.48014E-15-6.25129E+01-7.49743E+01
 -1        15 1.42802E-14-6.25129E+01 7.49743E+01
 -1        16 4.44970E-15 6.25129E+01 7.49743E+01
 -1        17-6.25129E+01 1.45410E-15-7.49743E+01
 -1        18-6.25129E+01-6.25129E+01 5.32907E-15
 -1        19-6.25129E+01 3.65292E-15 7.49743E+01
 -1        20-6.25129E+01 6.25129E+01 7.32747E-15
 -3
    1PSTEP                       805         161           1          
  100CL  261 317800.4774          20                     0  161           1
 -4  ERROR       1    1
 -5  STR(%)      1    1    0    0
 -1         1 3.16708E-14
 -1         2 3.16708E-14
 -1         3 3.16708E-14
 -1         4 3.16708E-14
 -1         5 3.16708E-14
 -1         6 3.16708E-14
 -1         7 3.16708E-14
 -1         8 3.16708E-14
 -1         9 3.16708E-14
 -1        10 3.16708E-14
 -1        11 3.16708E-14
 -1        12 3.16708E-14
 -1        13 3.16708E-14
 -1        14 3.16708E-14
 -1        15 3.16708E-14
 -1        16 3.16708E-14
 -1        17 3.16708E-14
 -1        18 3.16708E-14
 -1        19 3.16708E-14
 -1        20 3.16708E-14
 -3
    1PSTEP                       806         162           1          
  100CL  262 320375.9589          20                     0  162           1
 -4  DISP        4    1
 -5  D1          1    2    1    0
 -5  D2          1    2    2    0
 -5  D3          1    2    3    0
 -5  ALL         1    2    0    0    1ALL
 -1         1 0.00000E+00 0.00000E+00 0.00000E+00
 -1         2 0.00000E+00 0.00000E+00 0.00000E+00
 -1         3 0.00000E+00 0.00000E+00 2.00000E-03
 -1         4 0.00000E+00 0.00000E+00 2.00000E-03
 -1         5 0.00000E+00 0.00000E+00 0.00000E+00
 -1         6 0.00000E+00 0.00000E+00 0.00000E+00
 -1         7 0.00000E+00 0.00000E+00 2.00000E-03
 -1         8 0.00000E+00 0.00000E+00 2.00000E-03
 -1         9 0.00000E+00 0.00000E+00 0.00000E+00
 -1        10 0.00000E+00 0.00000E+00 1.00000E-03
 -1        11 0.00000E+00 0.00000E+00 2.00000E-03
 -1        12 0.00000E+00 0.00000E+00 1.00000E-03
 -1        13 0.00000E+00 0.00000E+00 0.00000E+00
 -1        14 0.00000E+00 0.00000E+00 0.00000E+00
 -1        15 0.00000E+00 0.00000E+00 2.00000E-03
 -1        16 0.00000E+00 0.00000E+00 2.00000E-03
 -1        17 0.00000E+00 0.00000E+00 0.00000E+00
 -1        18 0.00000E+00 0.00000E+00 1.00000E-03
 -1        19 0.00000E+00 0.00000E+00 2.00000E-03
 -1        20 0.00000E+00 0.00000E+00 1.00000E-03
 -3
    1PSTEP                       807         162           1          
  100CL  262 320375.9589          20                     0  162           1
 -4  STRESS      6    1
 -5  SXX         1    4    1    1
 -5  SYY         1    4    2    2
 -5  SZZ         1    4    3    3
 -5  SXY         1    4    1    2
 -5  SYZ         1    4    2    3
 -5  SZX         1    4    3    1
 -1         1 1.87659E+02 1.87659E+02 2.24658E+02 0.00000E+00 7.63235E-15 1.33032E-14
 -1         2 1.87659E+02 1.87659E+02 2.24658E+02 0.00000E+00-1.20039E-14-1.49613E-14
 -1         3 1.87659E+02 1.87659E+02 2.24658E+02 0.00000E+00-1.86696E-15-2.21730E-14
 -1         4 1.87659E+02 1.87659E+02 2.24658E+02 0.00000E+00-4.27110E-15 3.25858E-14
 -1         5 1.87659E+02 1.87659E+02 2.24658E+02 0.00000E+00 5.47911E-15-4.68480E-15
 -1         6 1.87659E+02 1.87659E+02 2.24658E+02 0.00000E+00-3.95647E-15 1.60365E-16
 -1         7 1.87659E+02 1.87659E+02 2.24658E+02 0.00000E+00 3.57484E-14 2.61429E-14
 -1         8 1.87659E+02 1.87659E+02 2.24658E+02 0.00000E+00-5.42981E-17-6.96560E-15
 -1         9 1.87676E+02 1.87676E+02 2.24679E+02 0.00000E+00-7.74797E-15-3.78509E-15
 -1        10 1.87676E+02 1.87676E+02 2.24679E+02 0.00000E+00 8.14775E-15 7.12730E-15
 -1        11 1.87676E+02 1.87676E+02 2.24679E+02 0.00000E+00 4.71019E-15 4.13976E-15
 -1        12 1.87676E+02 1.87676E+02 2.24679E+02 0.00000E+00 4.47853E-15 3.17812E-15
 -1        13 1.87676E+02 1.87676E+02 2.24679E+02 0.00000E+00-3.18403E-15-4.68786E-16
 -1        14 1.87676E+02 1.87676E+02 2.24679E+02 0.00000E+00 7.58818E-15 1.65419E-15
 -1        15 1.87676E+02 1.87676E+02 2.24679E+02 0.00000E+00-2.15267E-14 4.61163E-15
 -1        16 1.87676E+02 1.87676E+02 2.24679E+02 0.00000E+00 8.23560E-15 7.73309E-15
 -1        17 1.87676E+02 1.87676E+02 2.24679E+02 0.00000E+00-9.00454E-16 4.20902E-15
 -1        18 1.87676E+02 1.87676E+02 2.24679E+02 0.00000E+00 1.12759E-14-1.45259E-14
 -1        19 1.87676E+02 1.87676E+02 2.24679E+02 0.00000E+00 9.67736E-15-2.07413E-15
 -1        20 1.87676E+02 1.87676E+02 2.24679E+02 0.00000E+00 4.26350E-15 8.26903E-15
 -3
    1PSTEP                       808         162           1          
  100CL  262 320375.9589          20                     0  162           1
 -4  TOSTRAIN    6    1
 -5  EXX         1    4    1    1
 -5  EYY         1    4    2    2
 -5  EZZ         1    4    3    3
 -5  EXY         1    4    1    2
 -5  EYZ         1    4    2    3
 -5  EZX         1    4    3    1
 -1         1 0.00000E+00 0.00000E+00 1.99992E-03 0.00000E+00 4.12546E-19 7.19066E-19
 -1         2 0.00000E+00 0.00000E+00 1.99992E-03 0.00000E+00-6.48839E-19-8.08690E-19
 -1         3 0.00000E+00 0.00000E+00 1.99992E-03 0.00000E+00-1.00914E-19-1.19850E-18
 -1         4 0.00000E+00 0.00000E+00 1.99992E-03 0.00000E+00-2.30863E-19 1.76134E-18
 -1         5 0.00000E+00 0.00000E+00 1.99992E-03 0.00000E+00 2.96159E-19-2.53224E-19
 -1         6 0.00000E+00 0.00000E+00 1.99992E-03 0.00000E+00-2.13856E-19 8.66809E-21
 -1         7 0.00000E+00 0.00000E+00 1.99992E-03 0.00000E+00 1.93228E-18 1.41309E-18
 -1         8 0.00000E+00 0.00000E+00 1.99992E-03 0.00000E+00-2.93494E-21-3.76507E-19
 -1         9 0.00000E+00 0.00000E+00 2.00010E-03 0.00000E+00-4.18795E-19-2.04593E-19
 -1        10 0.00000E+00 0.00000E+00 2.00010E-03 0.00000E+00 4.40404E-19 3.85247E-19
 -1        11 0.00000E+00 0.00000E+00 2.00010E-03 0.00000E+00 2.54597E-19 2.23763E-19
 -1        12 0.00000E+00 0.00000E+00 2.00010E-03 0.00000E+00 2.42075E-19 1.71784E-19
 -1        13 0.00000E+00 0.00000E+00 2.00010E-03 0.00000E+00-1.72104E-19-2.53389E-20
 -1        14 0.00000E+00 0.00000E+00 2.00010E-03 0.00000E+00 4.10158E-19 8.94127E-20
 -1        15 0.00000E+00 0.00000E+00 2.00010E-03 0.00000E+00-1.16356E-18 2.49269E-19
 -1        16 0.00000E+00 0.00000E+00 2.00010E-03 0.00000E+00 4.45153E-19 4.17991E-19
 -1        17 0.00000E+00 0.00000E+00 2.00010E-03 0.00000E+00-4.86716E-20 2.27507E-19
 -1        18 0.00000E+00 0.00000E+00 2.00010E-03 0.00000E+00 6.09490E-19-7.85158E-19
 -1        19 0.00000E+00 0.00000E+00 2.00010E-03 0.00000E+00 5.23083E-19-1.12112E-19
 -1        20 0.00000E+00 0.00000E+00 2.00010E-03 0.00000E+00 2.30452E-19 4.46960E-19
 -3
    1PSTEP                       809         162           1          
  100CL  262 320375.9589          20                     0  162           1
 -4  FORC        4    1
 -5  F1          1    2    1    0
 -5  F2          1    2    2    0
 -5  F3          1    2    3    0
 -5  ALL         1    2    0    0    1ALL
 -1         1-1.56389E+01-1.56389E+01 1.87223E+01
 -1         2-1.56389E+01 1.56389E+01 1.87223E+01
 -1         3-1.56389E+01 1.56389E+01-1.87223E+01
 -1         4-1.56389E+01-1.56389E+01-1.87223E+01
 -1         5 1.56389E+01-1.56389E+01 1.87223E+01
 -1         6 1.56389E+01 1.56389E+01 1.87223E+01
 -1         7 1.56389E+01 1.56389E+01-1.87223E+01
 -1         8 1.56389E+01-1.56389E+01-1.87223E+01
 -1         9 6.25554E+01-6.22985E-15-7.48892E+01
 -1        10 6.25554E+01-6.25554E+01 7.32747E-15
 -1        11 6.25554E+01 2.23304E-15 7.48892E+01
 -1        12 6.25554E+01 6.25554E+01 1.60427E-14
 -1        13-8.66846E-15 6.25554E+01-7.48892E+01
 -1        14 9.47925E-15-6.25554E+01-7.48892E+01
 -1        15 3.62138E-15-6.25554E+01 7.48892E+01
 -1        16-5.76444E-15 6.25554E+01 7.48892E+01
 -1        17-6.25554E+01 3.23149E-15-7.48892E+01
 -1        18-6.25554E+01-6.25554E+01-3.55271E-15
 -1        19-6.25554E+01 3.65190E-15 7.48892E+01
 -1        20-6.25554E+01 6.25554E+01-3.99680E-15
 -3
    1PSTEP                       810         162           1          
  100CL  262 320375.9589          20                     0  162           1
 -4  ERROR       1    1
 -5  STR(%)      1    1    0    0
 -1         1 1.22945E-14
 -1         2 1.22945E-14
 -1         3 1.22945E-14
 -1         4 1.22945E-14
 -1         5 1.22945E-14
 -1         6 1.22945E-14
 -1         7 1.22945E-14
 -1         8 1.22945E-14
 -1         9 1.22945E-14
 -1        10 1.22945E-14
 -1        11 1.22945E-14
 -1        12 1.22945E-14
 -1        13 1.22945E-14
 -1        14 1.22945E-14
 -1        15 1.22945E-14
 -1        16 1.22945E-14
 -1        17 1.22945E-14
 -1        18 1.22945E-14
 -1        19 1.22945E-14
 -1        20 1.22945E-14
 -3
    1PSTEP                       811         163           1          
  100CL  263 322951.4404          20                     0  163           1
 -4  DISP        4    1
 -5  D1          1    2    1    0
 -5  D2          1    2    2    0
 -5  D3          1    2    3    0
 -5  ALL         1    2    0    0    1ALL
 -1         1 0.00000E+00 0.00000E+00 0.00000E+00
 -1         2 0.00000E+00 0.00000E+00 0.00000E+00
 -1         3 0.00000E+00 0.00000E+00 2.00000E-03
 -1         4 0.00000E+00 0.00000E+00 2.00000E-03
 -1         5 0.00000E+00 0.00000E+00 0.00000E+00
 -1         6 0.00000E+00 0.00000E+00 0.00000E+00
 -1         7 0.00000E+00 0.00000E+00 2.00000E-03
 -1         8 0.00000E+00 0.00000E+00 2.00000E-03
 -1         9 0.00000E+00 0.00000E+00 0.00000E+00
 -1        10 0.00000E+00 0.00000E+00 1.00000E-03
 -1        11 0.00000E+00 0.00000E+00 2.00000E-03
 -1        12 0.00000E+00 0.00000E+00 1.00000E-03
 -1        13 0.00000E+00 0.00000E+00 0.00000E+00
 -1        14 0.00000E+00 0.00000E+00 0.00000E+00
 -1        15 0.00000E+00 0.00000E+00 2.00000E-03
 -1        16 0.00000E+00 0.00000E+00 2.00000E-03
 -1        17 0.00000E+00 0.00000E+00 0.00000E+00
 -1        18 0.00000E+00 0.00000E+00 1.00000E-03
 -1        19 0.00000E+00 0.00000E+00 2.00000E-03
 -1        20 0.00000E+00 0.00000E+00 1.00000E-03
 -3
    1PSTEP                       812         163           1          
  100CL  263 322951.4404          20                     0  163           1
 -4  STRESS      6    1
 -5  SXX         1    4    1    1
 -5  SYY         1    4    2    2
 -5  SZZ         1    4    3    3
 -5  SXY         1    4    1    2
 -5  SYZ         1    4    2    3
 -5  SZX         1    4    3    1
 -1         1 1.87785E+02 1.87785E+02 2.24406E+02 0.00000E+00 7.55415E-15 1.31669E-14
 -1         2 1.87785E+02 1.87785E+02 2.24406E+02 0.00000E+00-1.18809E-14-1.48080E-14
 -1         3 1.87785E+02 1.87785E+02 2.24406E+02 0.00000E+00-1.84784E-15-2.19458E-14
 -1         4 1.87785E+02 1.87785E+02 2.24406E+02 0.00000E+00-4.22734E-15 3.22519E-14
 -1         5 1.87785E+02 1.87785E+02 2.24406E+02 0.00000E+00 5.42298E-15-4.63680E-15
 -1         6 1.87785E+02 1.87785E+02 2.24406E+02 0.00000E+00-3.91593E-15 1.58722E-16
 -1         7 1.87785E+02 1.87785E+02 2.24406E+02 0.00000E+00 3.53821E-14 2.58751E-14
 -1         8 1.87785E+02 1.87785E+02 2.24406E+02 0.00000E+00-5.37418E-17-6.89424E-15
 -1         9 1.87802E+02 1.87802E+02 2.24426E+02 0.00000E+00-7.66858E-15-3.74631E-15
 -1        10 1.87802E+02 1.87802E+02 2.24426E+02 0.00000E+00 8.06427E-15 7.05428E-15
 -1        11 1.87802E+02 1.87802E+02 2.24426E+02 0.00000E+00 4.66193E-15 4.09734E-15
 -1        12 1.87802E+02 1.87802E+02 2.24426E+02 0.00000E+00 4.43264E-15 3.14556E-15
 -1        13 1.87802E+02 1.87802E+02 2.24426E+02 0.00000E+00-3.15141E-15-4.63983E-16
 -1        14 1.87802E+02 1.87802E+02 2.24426E+02 0.00000E+00 7.51044E-15 1.63724E-15
 -1        15 1.87802E+02 1.87802E+02 2.24426E+02 0.00000E+00-2.13061E-14 4.56438E-15
 -1        16 1.87802E+02 1.87802E+02 2.24426E+02 0.00000E+00 8.15122E-15 7.65385E-15
 -1        17 1.87802E+02 1.87802E+02 2.24426E+02 0.00000E+00-8.91228E-16 4.16589E-15
 -1        18 1.87802E+02 1.87802E+02 2.24426E+02 0.00000E+00 1.11604E-14-1.43771E-14
 -1        19 1.87802E+02 1.87802E+02 2.24426E+02 0.00000E+00 9.57820E-15-2.05288E-15
 -1        20 1.87802E+02 1.87802E+02 2.24426E+02 0.00000E+00 4.21981E-15 8.18431E-15
 -3
    1PSTEP                       813         163           1          
  100CL  263 322951.4404          20                     0  163           1
 -4  TOSTRAIN    6    1
 -5  EXX         1    4    1    1
 -5  EYY         1    4    2    2
 -5  EZZ         1    4    3    3
 -5  EXY         1    4    1    2
 -5  EYZ         1    4    2    3
 -5  EZX         1    4    3    1
 -1         1 0.00000E+00 0.00000E+00 1.99992E-03 0.00000E+00 4.12546E-19 7.19066E-19
 -1         2 0.00000E+00 0.00000E+00 1.99992E-03 0.00000E+00-6.48839E-19-8.08690E-19
 -1         3 0.00000E+00 0.00000E+00 1.99992E-03 0.00000E+00-1.00914E-19-1.19850E-18
 -1         4 0.00000E+00 0.00000E+00 1.99992E-03 0.00000E+00-2.30863E-19 1.76134E-18
 -1         5 0.00000E+00 0.00000E+00 1.99992E-03 0.00000E+00 2.96159E-19-2.53224E-19
 -1         6 0.00000E+00 0.00000E+00 1.99992E-03 0.00000E+00-2.13856E-19 8.66809E-21
 -1         7 0.00000E+00 0.00000E+00 1.99992E-03 0.00000E+00 1.93228E-18 1.41309E-18
 -1         8 0.00000E+00 0.00000E+00 1.99992E-03 0.00000E+00-2.93494E-21-3.76507E-19
 -1         9 0.00000E+00 0.00000E+00 2.00010E-03 0.00000E+00-4.18795E-19-2.04593E-19
 -1        10 0.00000E+00 0.00000E+00 2.00010E-03 0.00000E+00 4.40404E-19 3.85247E-19
 -1        11 0.00000E+00 0.00000E+00 2.00010E-03 0.00000E+00 2.54597E-19 2.23763E-19
 -1        12 0.00000E+00 0.00000E+00 2.00010E-03 0.00000E+00 2.42075E-19 1.71784E-19
 -1        13 0.00000E+00 0.00000E+00 2.00010E-03 0.00000E+00-1.72104E-19-2.53389E-20
 -1        14 0.00000E+00 0.00000E+00 2.00010E-03 0.00000E+00 4.10158E-19 8.94127E-20
 -1        15 0.00000E+00 0.00000E+00 2.00010E-03 0.00000E+00-1.16356E-18 2.49269E-19
 -1        16 0.00000E+00 0.00000E+00 2.00010E-03 0.00000E+00 4.45153E-19 4.17991E-19
 -1        17 0.00000E+00 0.00000E+00 2.00010E-03 0.00000E+00-4.86716E-20 2.27507E-19
 -1        18 0.00000E+00 0.00000E+00 2.00010E-03 0.00000E+00 6.09490E-19-7.85158E-19
 -1        19 0.00000E+00 0.00000E+00 2.00010E-03 0.00000E+00 5.23083E-19-1.12112E-19
 -1        20 0.00000E+00 0.00000E+00 2.00010E-03 0.00000E+00 2.30452E-19 4.46960E-19
 -3
    1PSTEP                       814         163           1          
  100CL  263 322951.4404          20                     0  163           1
 -4  FORC        4    1
 -5  F1          1    2    1    0
 -5  F2          1    2    2    0
 -5  F3          1    2    3    0
 -5  ALL         1    2    0    0    1ALL
 -1         1-1.56494E+01-1.56494E+01 1.87012E+01
 -1         2-1.56494E+01 1.56494E+01 1.87012E+01
 -1         3-1.56494E+01 1.56494E+01-1.87012E+01
 -1         4-1.56494E+01-1.56494E+01-1.87012E+01
 -1         5 1.56494E+01-1.56494E+01 1.87012E+01
 -1         6 1.56494E+01 1.56494E+01 1.87012E+01
 -1         7 1.56494E+01 1.56494E+01-1.87012E+01
 -1         8 1.56494E+01-1.56494E+01-1.87012E+01
 -1         9 6.25975E+01-6.20196E-15-7.48049E+01
 -1        10 6.25975E+01-6.25975E+01 1.31006E-14
 -1        11 6.25975E+01 4.23132E-15 7.48049E+01
 -1        12 6.25975E+01 6.25975E+01 2.26485E-14
 -1        13-5.58750E-15 6.25975E+01-7.48049E+01
 -1        14 3.26271E-15-6.25975E+01-7.48049E+01
 -1        15-1.70840E-15-6.25975E+01 7.48049E+01
 -1        16-1.73108E-14 6.25975E+01 7.48049E+01
 -1        17-6.25975E+01 5.23090E-15-7.48049E+01
 -1        18-6.25975E+01-6.25975E+01 5.32907E-15
 -1        19-6.25975E+01 3.65088E-15 7.48049E+01
 -1        20-6.25975E+01 6.25975E+01 8.43769E-15
 -3
    1PSTEP                       815         163           1          
  100CL  263 322951.4404          20                     0  163           1
 -4  ERROR       1    1
 -5  STR(%)      1    1    0    0
 -1         1 3.17425E-14
 -1         2 3.17425E-14
 -1         3 3.17425E-14
 -1         4 3.17425E-14
 -1         5 3.17425E-14
 -1         6 3.17425E-14
 -1         7 3.17425E-14
 -1         8 3.17425E-14
 -1         9 3.17425E-14
 -1        10 3.17425E-14
 -1        11 3.17425E-14
 -1        12 3.17425E-14
 -1        13 3.17425E-14
 -1        14 3.17425E-14
 -1        15 3.17425E-14
 -1        16 3.17425E-14
 -1        17 3.17425E-14
 -1        18 3.17425E-14
 -1        19 3.17425E-14
 -1        20 3.17425E-14
 -3
    1PSTEP                       816         164           1          
  100CL  264 326814.6627          20                     0  164           1
 -4  DISP        4    1
 -5  D1          1    2    1    0
 -5  D2          1    2    2    0
 -5  D3          1    2    3    0
 -5  ALL         1    2    0    0    1ALL
 -1         1 0.00000E+00 0.00000E+00 0.00000E+00
 -1         2 0.00000E+00 0.00000E+00 0.00000E+00
 -1         3 0.00000E+00 0.00000E+00 2.00000E-03
 -1         4 0.00000E+00 0.00000E+00 2.00000E-03
 -1         5 0.00000E+00 0.00000E+00 0.00000E+00
 -1         6 0.00000E+00 0.00000E+00 0.00000E+00
 -1         7 0.00000E+00 0.00000E+00 2.00000E-03
 -1         8 0.00000E+00 0.00000E+00 2.00000E-03
 -1         9 0.00000E+00 0.00000E+00 0.00000E+00
 -1        10 0.00000E+00 0.00000E+00 1.00000E-03
 -1        11 0.00000E+00 0.00000E+00 2.00000E-03
 -1        12 0.00000E+00 0.00000E+00 1.00000E-03
 -1        13 0.00000E+00 0.00000E+00 0.00000E+00
 -1        14 0.00000E+00 0.00000E+00 0.00000E+00
 -1        15 0.00000E+00 0.00000E+00 2.00000E-03
 -1        16 0.00000E+00 0.00000E+00 2.00000E-03
 -1        17 0.00000E+00 0.00000E+00 0.00000E+00
 -1        18 0.00000E+00 0.00000E+00 1.00000E-03
 -1        19 0.00000E+00 0.00000E+00 2.00000E-03
 -1        20 0.00000E+00 0.00000E+00 1.00000E-03
 -3
    1PSTEP                       817         164           1          
  100CL  264 326814.6627          20                     0  164           1
 -4  STRESS      6    1
 -5  SXX         1    4    1    1
 -5  SYY         1    4    2    2
 -5  SZZ         1    4    3    3
 -5  SXY         1    4    1    2
 -5  SYZ         1    4    2    3
 -5  SZX         1    4    3    1
 -1         1 1.87972E+02 1.87972E+02 2.24032E+02 0.00000E+00 7.43865E-15 1.29655E-14
 -1         2 1.87972E+02 1.87972E+02 2.24032E+02 0.00000E+00-1.16993E-14-1.45815E-14
 -1         3 1.87972E+02 1.87972E+02 2.24032E+02 0.00000E+00-1.81958E-15-2.16103E-14
 -1         4 1.87972E+02 1.87972E+02 2.24032E+02 0.00000E+00-4.16270E-15 3.17588E-14
 -1         5 1.87972E+02 1.87972E+02 2.24032E+02 0.00000E+00 5.34006E-15-4.56590E-15
 -1         6 1.87972E+02 1.87972E+02 2.24032E+02 0.00000E+00-3.85606E-15 1.56295E-16
 -1         7 1.87972E+02 1.87972E+02 2.24032E+02 0.00000E+00 3.48411E-14 2.54795E-14
 -1         8 1.87972E+02 1.87972E+02 2.24032E+02 0.00000E+00-5.29200E-17-6.78882E-15
 -1         9 1.87989E+02 1.87989E+02 2.24053E+02 0.00000E+00-7.55132E-15-3.68903E-15
 -1        10 1.87989E+02 1.87989E+02 2.24053E+02 0.00000E+00 7.94096E-15 6.94642E-15
 -1        11 1.87989E+02 1.87989E+02 2.24053E+02 0.00000E+00 4.59065E-15 4.03469E-15
 -1        12 1.87989E+02 1.87989E+02 2.24053E+02 0.00000E+00 4.36487E-15 3.09746E-15
 -1        13 1.87989E+02 1.87989E+02 2.24053E+02 0.00000E+00-3.10322E-15-4.56888E-16
 -1        14 1.87989E+02 1.87989E+02 2.24053E+02 0.00000E+00 7.39560E-15 1.61221E-15
 -1        15 1.87989E+02 1.87989E+02 2.24053E+02 0.00000E+00-2.09803E-14 4.49459E-15
 -1        16 1.87989E+02 1.87989E+02 2.24053E+02 0.00000E+00 8.02659E-15 7.53682E-15
 -1        17 1.87989E+02 1.87989E+02 2.24053E+02 0.00000E+00-8.77601E-16 4.10219E-15
 -1        18 1.87989E+02 1.87989E+02 2.24053E+02 0.00000E+00 1.09898E-14-1.41572E-14
 -1        19 1.87989E+02 1.87989E+02 2.24053E+02 0.00000E+00 9.43175E-15-2.02149E-15
 -1        20 1.87989E+02 1.87989E+02 2.24053E+02 0.00000E+00 4.15529E-15 8.05917E-15
 -3
    1PSTEP                       818         164           1          
  100CL  264 326814.6627          20                     0  164           1
 -4  TOSTRAIN    6    1
 -5  EXX         1    4    1    1
 -5  EYY         1    4    2    2
 -5  EZZ         1    4    3    3
 -5  EXY         1    4    1    2
 -5  EYZ         1    4    2    3
 -5  EZX         1    4    3    1
 -1         1 0.00000E+00 0.00000E+00 1.99992E-03 0.00000E+00 4.12546E-19 7.19066E-19
 -1         2 0.00000E+00 0.00000E+00 1.99992E-03 0.00000E+00-6.48839E-19-8.08690E-19
 -1         3 0.00000E+00 0.00000E+00 1.99992E-03 0.00000E+00-1.00914E-19-1.19850E-18
 -1         4 0.00000E+00 0.00000E+00 1.99992E-03 0.00000E+00-2.30863E-19 1.76134E-18
 -1         5 0.00000E+00 0.00000E+00 1.99992E-03 0.00000E+00 2.96159E-19-2.53224E-19
 -1         6 0.00000E+00 0.00000E+00 1.99992E-03 0.00000E+00-2.13856E-19 8.66809E-21
 -1         7 0.00000E+00 0.00000E+00 1.99992E-03 0.00000E+00 1.93228E-18 1.41309E-18
 -1         8 0.00000E+00 0.00000E+00 1.99992E-03 0.00000E+00-2.93494E-21-3.76507E-19
 -1         9 0.00000E+00 0.00000E+00 2.00010E-03 0.00000E+00-4.18795E-19-2.04593E-19
 -1        10 0.00000E+00 0.00000E+00 2.00010E-03 0.00000E+00 4.40404E-19 3.85247E-19
 -1        11 0.00000E+00 0.00000E+00 2.00010E-03 0.00000E+00 2.54597E-19 2.23763E-19
 -1        12 0.00000E+00 0.00000E+00 2.00010E-03 0.00000E+00 2.42075E-19 1.71784E-19
 -1        13 0.00000E+00 0.00000E+00 2.00010E-03 0.00000E+00-1.72104E-19-2.53389E-20
 -1        14 0.00000E+00 0.00000E+00 2.00010E-03 0.00000E+00 4.10158E-19 8.94127E-20
 -1        15 0.00000E+00 0.00000E+00 2.00010E-03 0.00000E+00-1.16356E-18 2.49269E-19
 -1        16 0.00000E+00 0.00000E+00 2.00010E-03 0.00000E+00 4.45153E-19 4.17991E-19
 -1        17 0.00000E+00 0.00000E+00 2.00010E-03 0.00000E+00-4.86716E-20 2.27507E-19
 -1        18 0.00000E+00 0.00000E+00 2.00010E-03 0.00000E+00 6.09490E-19-7.85158E-19
 -1        19 0.00000E+00 0.00000E+00 2.00010E-03 0.00000E+00 5.23083E-19-1.12112E-19
 -1        20 0.00000E+00 0.00000E+00 2.00010E-03 0.00000E+00 2.30452E-19 4.46960E-19
 -3
    1PSTEP                       819         164           1          
  100CL  264 326814.6627          20                     0  164           1
 -4  FORC        4    1
 -5  F1          1    2    1    0
 -5  F2          1    2    2    0
 -5  F3          1    2    3    0
 -5  ALL         1    2    0    0    1ALL
 -1         1-1.56649E+01-1.56649E+01 1.86701E+01
 -1         2-1.56649E+01 1.56649E+01 1.86701E+01
 -1         3-1.56649E+01 1.56649E+01-1.86701E+01
 -1         4-1.56649E+01-1.56649E+01-1.86701E+01
 -1         5 1.56649E+01-1.56649E+01 1.86701E+01
 -1         6 1.56649E+01 1.56649E+01 1.86701E+01
 -1         7 1.56649E+01 1.56649E+01-1.86701E+01
 -1         8 1.56649E+01-1.56649E+01-1.86701E+01
 -1         9 6.26598E+01-7.11771E-15-7.46805E+01
 -1        10 6.26598E+01-6.26598E+01 1.13243E-14
 -1        11 6.26598E+01 5.56339E-15 7.46805E+01
 -1        12 6.26598E+01 6.26598E+01 2.21489E-14
 -1        13-1.06321E-15 6.26598E+01-7.46805E+01
 -1        14 2.23596E-14-6.26598E+01-7.46805E+01
 -1        15-8.81486E-15-6.26598E+01 7.46805E+01
 -1        16-1.06496E-14 6.26598E+01 7.46805E+01
 -1        17-6.26598E+01 5.01036E-15-7.46805E+01
 -1        18-6.26598E+01-6.26598E+01 5.32907E-15
 -1        19-6.26598E+01 3.64938E-15 7.46805E+01
 -1        20-6.26598E+01 6.26598E+01 7.32747E-15
 -3
    1PSTEP                       820         164           1          
  100CL  264 326814.6627          20                     0  164           1
 -4  ERROR       1    1
 -5  STR(%)      1    1    0    0
 -1         1 8.88972E-14
 -1         2 8.88972E-14
 -1         3 8.88972E-14
 -1         4 8.88972E-14
 -1         5 8.88972E-14
 -1         6 8.88972E-14
 -1         7 8.88972E-14
 -1         8 8.88972E-14
 -1         9 8.88972E-14
 -1        10 8.88972E-14
 -1        11 8.88972E-14
 -1        12 8.88972E-14
 -1        13 8.88972E-14
 -1        14 8.88972E-14
 -1        15 8.88972E-14
 -1        16 8.88972E-14
 -1        17 8.88972E-14
 -1        18 8.88972E-14
 -1        19 8.88972E-14
 -1        20 8.88972E-14
 -3
    1PSTEP                       821         165           1          
  100CL  265 329391.0041          20                     0  165           1
 -4  DISP        4    1
 -5  D1          1    2    1    0
 -5  D2          1    2    2    0
 -5  D3          1    2    3    0
 -5  ALL         1    2    0    0    1ALL
 -1         1 0.00000E+00 0.00000E+00 0.00000E+00
 -1         2 0.00000E+00 0.00000E+00 0.00000E+00
 -1         3 0.00000E+00 0.00000E+00 2.00000E-03
 -1         4 0.00000E+00 0.00000E+00 2.00000E-03
 -1         5 0.00000E+00 0.00000E+00 0.00000E+00
 -1         6 0.00000E+00 0.00000E+00 0.00000E+00
 -1         7 0.00000E+00 0.00000E+00 2.00000E-03
 -1         8 0.00000E+00 0.00000E+00 2.00000E-03
 -1         9 0.00000E+00 0.00000E+00 0.00000E+00
 -1        10 0.00000E+00 0.00000E+00 1.00000E-03
 -1        11 0.00000E+00 0.00000E+00 2.00000E-03
 -1        12 0.00000E+00 0.00000E+00 1.00000E-03
 -1        13 0.00000E+00 0.00000E+00 0.00000E+00
 -1        14 0.00000E+00 0.00000E+00 0.00000E+00
 -1        15 0.00000E+00 0.00000E+00 2.00000E-03
 -1        16 0.00000E+00 0.00000E+00 2.00000E-03
 -1        17 0.00000E+00 0.00000E+00 0.00000E+00
 -1        18 0.00000E+00 0.00000E+00 1.00000E-03
 -1        19 0.00000E+00 0.00000E+00 2.00000E-03
 -1        20 0.00000E+00 0.00000E+00 1.00000E-03
 -3
    1PSTEP                       822         165           1          
  100CL  265 329391.0041          20                     0  165           1
 -4  STRESS      6    1
 -5  SXX         1    4    1    1
 -5  SYY         1    4    2    2
 -5  SZZ         1    4    3    3
 -5  SXY         1    4    1    2
 -5  SYZ         1    4    2    3
 -5  SZX         1    4    3    1
 -1         1 1.88095E+02 1.88095E+02 2.23786E+02 0.00000E+00 7.36241E-15 1.28326E-14
 -1         2 1.88095E+02 1.88095E+02 2.23786E+02 0.00000E+00-1.15794E-14-1.44321E-14
 -1         3 1.88095E+02 1.88095E+02 2.23786E+02 0.00000E+00-1.80093E-15-2.13888E-14
 -1         4 1.88095E+02 1.88095E+02 2.23786E+02 0.00000E+00-4.12004E-15 3.14333E-14
 -1         5 1.88095E+02 1.88095E+02 2.23786E+02 0.00000E+00 5.28533E-15-4.51911E-15
 -1         6 1.88095E+02 1.88095E+02 2.23786E+02 0.00000E+00-3.81654E-15 1.54693E-16
 -1         7 1.88095E+02 1.88095E+02 2.23786E+02 0.00000E+00 3.44840E-14 2.52183E-14
 -1         8 1.88095E+02 1.88095E+02 2.23786E+02 0.00000E+00-5.23776E-17-6.71924E-15
 -1         9 1.88112E+02 1.88112E+02 2.23806E+02 0.00000E+00-7.47393E-15-3.65122E-15
 -1        10 1.88112E+02 1.88112E+02 2.23806E+02 0.00000E+00 7.85957E-15 6.87522E-15
 -1        11 1.88112E+02 1.88112E+02 2.23806E+02 0.00000E+00 4.54360E-15 3.99334E-15
 -1        12 1.88112E+02 1.88112E+02 2.23806E+02 0.00000E+00 4.32013E-15 3.06571E-15
 -1        13 1.88112E+02 1.88112E+02 2.23806E+02 0.00000E+00-3.07142E-15-4.52206E-16
 -1        14 1.88112E+02 1.88112E+02 2.23806E+02 0.00000E+00 7.31980E-15 1.59568E-15
 -1        15 1.88112E+02 1.88112E+02 2.23806E+02 0.00000E+00-2.07653E-14 4.44852E-15
 -1        16 1.88112E+02 1.88112E+02 2.23806E+02 0.00000E+00 7.94432E-15 7.45958E-15
 -1        17 1.88112E+02 1.88112E+02 2.23806E+02 0.00000E+00-8.68606E-16 4.06015E-15
 -1        18 1.88112E+02 1.88112E+02 2.23806E+02 0.00000E+00 1.08771E-14-1.40121E-14
 -1        19 1.88112E+02 1.88112E+02 2.23806E+02 0.00000E+00 9.33508E-15-2.00077E-15
 -1        20 1.88112E+02 1.88112E+02 2.23806E+02 0.00000E+00 4.11270E-15 7.97657E-15
 -3
    1PSTEP                       823         165           1          
  100CL  265 329391.0041          20                     0  165           1
 -4  TOSTRAIN    6    1
 -5  EXX         1    4    1    1
 -5  EYY         1    4    2    2
 -5  EZZ         1    4    3    3
 -5  EXY         1    4    1    2
 -5  EYZ         1    4    2    3
 -5  EZX         1    4    3    1
 -1         1 0.00000E+00 0.00000E+00 1.99992E-03 0.00000E+00 4.12546E-19 7.19066E-19
 -1         2 0.00000E+00 0.00000E+00 1.99992E-03 0.00000E+00-6.48839E-19-8.08690E-19
 -1         3 0.00000E+00 0.00000E+00 1.99992E-03 0.00000E+00-1.00914E-19-1.19850E-18
 -1         4 0.00000E+00 0.00000E+00 1.99992E-03 0.00000E+00-2.30863E-19 1.76134E-18
 -1         5 0.00000E+00 0.00000E+00 1.99992E-03 0.00000E+00 2.96159E-19-2.53224E-19
 -1         6 0.00000E+00 0.00000E+00 1.99992E-03 0.00000E+00-2.13856E-19 8.66809E-21
 -1         7 0.00000E+00 0.00000E+00 1.99992E-03 0.00000E+00 1.93228E-18 1.41309E-18
 -1         8 0.00000E+00 0.00000E+00 1.99992E-03 0.00000E+00-2.93494E-21-3.76507E-19
 -1         9 0.00000E+00 0.00000E+00 2.00010E-03 0.00000E+00-4.18795E-19-2.04593E-19
 -1        10 0.00000E+00 0.00000E+00 2.00010E-03 0.00000E+00 4.40404E-19 3.85247E-19
 -1        11 0.00000E+00 0.00000E+00 2.00010E-03 0.00000E+00 2.54597E-19 2.23763E-19
 -1        12 0.00000E+00 0.00000E+00 2.00010E-03 0.00000E+00 2.42075E-19 1.71784E-19
 -1        13 0.00000E+00 0.00000E+00 2.00010E-03 0.00000E+00-1.72104E-19-2.53389E-20
 -1        14 0.00000E+00 0.00000E+00 2.00010E-03 0.00000E+00 4.10158E-19 8.94127E-20
 -1        15 0.00000E+00 0.00000E+00 2.00010E-03 0.00000E+00-1.16356E-18 2.49269E-19
 -1        16 0.00000E+00 0.00000E+00 2.00010E-03 0.00000E+00 4.45153E-19 4.17991E-19
 -1        17 0.00000E+00 0.00000E+00 2.00010E-03 0.00000E+00-4.86716E-20 2.27507E-19
 -1        18 0.00000E+00 0.00000E+00 2.00010E-03 0.00000E+00 6.09490E-19-7.85158E-19
 -1        19 0.00000E+00 0.00000E+00 2.00010E-03 0.00000E+00 5.23083E-19-1.12112E-19
 -1        20 0.00000E+00 0.00000E+00 2.00010E-03 0.00000E+00 2.30452E-19 4.46960E-19
 -3
    1PSTEP                       824         165           1          
  100CL  265 329391.0041          20                     0  165           1
 -4  FORC        4    1
 -5  F1          1    2    1    0
 -5  F2          1    2    2    0
 -5  F3          1    2    3    0
 -5  ALL         1    2    0    0    1ALL
 -1         1-1.56752E+01-1.56752E+01 1.86496E+01
 -1         2-1.56752E+01 1.56752E+01 1.86496E+01
 -1         3-1.56752E+01 1.56752E+01-1.86496E+01
 -1         4-1.56752E+01-1.56752E+01-1.86496E+01
 -1         5 1.56752E+01-1.56752E+01 1.86496E+01
 -1         6 1.56752E+01 1.56752E+01 1.86496E+01
 -1         7 1.56752E+01 1.56752E+01-1.86496E+01
 -1         8 1.56752E+01-1.56752E+01-1.86496E+01
 -1         9 6.27008E+01-6.20165E-15-7.45983E+01
 -1        10 6.27008E+01-6.27008E+01 9.54792E-15
 -1        11 6.27008E+01-1.09807E-15 7.45983E+01
 -1        12 6.27008E+01 6.27008E+01 1.58762E-14
 -1        13-2.42315E-15 6.27008E+01-7.45983E+01
 -1        14 1.08140E-14-6.27008E+01-7.45983E+01
 -1        15-1.59210E-14-6.27008E+01 7.45983E+01
 -1        16-8.65133E-15 6.27008E+01 7.45983E+01
 -1        17-6.27008E+01 1.68068E-15-7.45983E+01
 -1        18-6.27008E+01-6.27008E+01 7.10543E-15
 -1        19-6.27008E+01-1.68068E-15 7.45983E+01
 -1        20-6.27008E+01 6.27008E+01-4.44089E-16
 -3
    1PSTEP                       825         165           1          
  100CL  265 329391.0041          20                     0  165           1
 -4  ERROR       1    1
 -5  STR(%)      1    1    0    0
 -1         1 7.53535E-14
 -1         2 7.53535E-14
 -1         3 7.53535E-14
 -1         4 7.53535E-14
 -1         5 7.53535E-14
 -1         6 7.53535E-14
 -1         7 7.53535E-14
 -1         8 7.53535E-14
 -1         9 7.53535E-14
 -1        10 7.53535E-14
 -1        11 7.53535E-14
 -1        12 7.53535E-14
 -1        13 7.53535E-14
 -1        14 7.53535E-14
 -1        15 7.53535E-14
 -1        16 7.53535E-14
 -1        17 7.53535E-14
 -1        18 7.53535E-14
 -1        19 7.53535E-14
 -1        20 7.53535E-14
 -3
    1PSTEP                       826         166           1          
  100CL  266 331967.3456          20                     0  166           1
 -4  DISP        4    1
 -5  D1          1    2    1    0
 -5  D2          1    2    2    0
 -5  D3          1    2    3    0
 -5  ALL         1    2    0    0    1ALL
 -1         1 0.00000E+00 0.00000E+00 0.00000E+00
 -1         2 0.00000E+00 0.00000E+00 0.00000E+00
 -1         3 0.00000E+00 0.00000E+00 2.00000E-03
 -1         4 0.00000E+00 0.00000E+00 2.00000E-03
 -1         5 0.00000E+00 0.00000E+00 0.00000E+00
 -1         6 0.00000E+00 0.00000E+00 0.00000E+00
 -1         7 0.00000E+00 0.00000E+00 2.00000E-03
 -1         8 0.00000E+00 0.00000E+00 2.00000E-03
 -1         9 0.00000E+00 0.00000E+00 0.00000E+00
 -1        10 0.00000E+00 0.00000E+00 1.00000E-03
 -1        11 0.00000E+00 0.00000E+00 2.00000E-03
 -1        12 0.00000E+00 0.00000E+00 1.00000E-03
 -1        13 0.00000E+00 0.00000E+00 0.00000E+00
 -1        14 0.00000E+00 0.00000E+00 0.00000E+00
 -1        15 0.00000E+00 0.00000E+00 2.00000E-03
 -1        16 0.00000E+00 0.00000E+00 2.00000E-03
 -1        17 0.00000E+00 0.00000E+00 0.00000E+00
 -1        18 0.00000E+00 0.00000E+00 1.00000E-03
 -1        19 0.00000E+00 0.00000E+00 2.00000E-03
 -1        20 0.00000E+00 0.00000E+00 1.00000E-03
 -3
    1PSTEP                       827         166           1          
  100CL  266 331967.3456          20                     0  166           1
 -4  STRESS      6    1
 -5  SXX         1    4    1    1
 -5  SYY         1    4    2    2
 -5  SZZ         1    4    3    3
 -5  SXY         1    4    1    2
 -5  SYZ         1    4    2    3
 -5  SZX         1    4    3    1
 -1         1 1.88217E+02 1.88217E+02 2.23542E+02 0.00000E+00 7.28695E-15 1.27011E-14
 -1         2 1.88217E+02 1.88217E+02 2.23542E+02 0.00000E+00-1.14607E-14-1.42842E-14
 -1         3 1.88217E+02 1.88217E+02 2.23542E+02 0.00000E+00-1.78247E-15-2.11696E-14
 -1         4 1.88217E+02 1.88217E+02 2.23542E+02 0.00000E+00-4.07781E-15 3.11111E-14
 -1         5 1.88217E+02 1.88217E+02 2.23542E+02 0.00000E+00 5.23115E-15-4.47279E-15
 -1         6 1.88217E+02 1.88217E+02 2.23542E+02 0.00000E+00-3.77742E-15 1.53108E-16
 -1         7 1.88217E+02 1.88217E+02 2.23542E+02 0.00000E+00 3.41306E-14 2.49598E-14
 -1         8 1.88217E+02 1.88217E+02 2.23542E+02 0.00000E+00-5.18408E-17-6.65037E-15
 -1         9 1.88234E+02 1.88234E+02 2.23562E+02 0.00000E+00-7.39733E-15-3.61380E-15
 -1        10 1.88234E+02 1.88234E+02 2.23562E+02 0.00000E+00 7.77902E-15 6.80475E-15
 -1        11 1.88234E+02 1.88234E+02 2.23562E+02 0.00000E+00 4.49703E-15 3.95241E-15
 -1        12 1.88234E+02 1.88234E+02 2.23562E+02 0.00000E+00 4.27585E-15 3.03429E-15
 -1        13 1.88234E+02 1.88234E+02 2.23562E+02 0.00000E+00-3.03994E-15-4.47571E-16
 -1        14 1.88234E+02 1.88234E+02 2.23562E+02 0.00000E+00 7.24478E-15 1.57933E-15
 -1        15 1.88234E+02 1.88234E+02 2.23562E+02 0.00000E+00-2.05525E-14 4.40293E-15
 -1        16 1.88234E+02 1.88234E+02 2.23562E+02 0.00000E+00 7.86290E-15 7.38312E-15
 -1        17 1.88234E+02 1.88234E+02 2.23562E+02 0.00000E+00-8.59704E-16 4.01854E-15
 -1        18 1.88234E+02 1.88234E+02 2.23562E+02 0.00000E+00 1.07656E-14-1.38685E-14
 -1        19 1.88234E+02 1.88234E+02 2.23562E+02 0.00000E+00 9.23940E-15-1.98027E-15
 -1        20 1.88234E+02 1.88234E+02 2.23562E+02 0.00000E+00 4.07055E-15 7.89481E-15
 -3
    1PSTEP                       828         166           1          
  100CL  266 331967.3456          20                     0  166           1
 -4  TOSTRAIN    6    1
 -5  EXX         1    4    1    1
 -5  EYY         1    4    2    2
 -5  EZZ         1    4    3    3
 -5  EXY         1    4    1    2
 -5  EYZ         1    4    2    3
 -5  EZX         1    4    3    1
 -1         1 0.00000E+00 0.00000E+00 1.99992E-03 0.00000E+00 4.12546E-19 7.19066E-19
 -1         2 0.00000E+00 0.00000E+00 1.99992E-03 0.00000E+00-6.48839E-19-8.08690E-19
 -1         3 0.00000E+00 0.00000E+00 1.99992E-03 0.00000E+00-1.00914E-19-1.19850E-18
 -1         4 0.00000E+00 0.00000E+00 1.99992E-03 0.00000E+00-2.30863E-19 1.76134E-18
 -1         5 0.00000E+00 0.00000E+00 1.99992E-03 0.00000E+00 2.96159E-19-2.53224E-19
 -1         6 0.00000E+00 0.00000E+00 1.99992E-03 0.00000E+00-2.13856E-19 8.66809E-21
 -1         7 0.00000E+00 0.00000E+00 1.99992E-03 0.00000E+00 1.93228E-18 1.41309E-18
 -1         8 0.00000E+00 0.00000E+00 1.99992E-03 0.00000E+00-2.93494E-21-3.76507E-19
 -1         9 0.00000E+00 0.00000E+00 2.00010E-03 0.00000E+00-4.18795E-19-2.04593E-19
 -1        10 0.00000E+00 0.00000E+00 2.00010E-03 0.00000E+00 4.40404E-19 3.85247E-19
 -1        11 0.00000E+00 0.00000E+00 2.00010E-03 0.00000E+00 2.54597E-19 2.23763E-19
 -1        12 0.00000E+00 0.00000E+00 2.00010E-03 0.00000E+00 2.42075E-19 1.71784E-19
 -1        13 0.00000E+00 0.00000E+00 2.00010E-03 0.00000E+00-1.72104E-19-2.53389E-20
 -1        14 0.00000E+00 0.00000E+00 2.00010E-03 0.00000E+00 4.10158E-19 8.94127E-20
 -1        15 0.00000E+00 0.00000E+00 2.00010E-03 0.00000E+00-1.16356E-18 2.49269E-19
 -1        16 0.00000E+00 0.00000E+00 2.00010E-03 0.00000E+00 4.45153E-19 4.17991E-19
 -1        17 0.00000E+00 0.00000E+00 2.00010E-03 0.00000E+00-4.86716E-20 2.27507E-19
 -1        18 0.00000E+00 0.00000E+00 2.00010E-03 0.00000E+00 6.09490E-19-7.85158E-19
 -1        19 0.00000E+00 0.00000E+00 2.00010E-03 0.00000E+00 5.23083E-19-1.12112E-19
 -1        20 0.00000E+00 0.00000E+00 2.00010E-03 0.00000E+00 2.30452E-19 4.46960E-19
 -3
    1PSTEP                       829         166           1          
  100CL  266 331967.3456          20                     0  166           1
 -4  FORC        4    1
 -5  F1          1    2    1    0
 -5  F2          1    2    2    0
 -5  F3          1    2    3    0
 -5  ALL         1    2    0    0    1ALL
 -1         1-1.56854E+01-1.56854E+01 1.86293E+01
 -1         2-1.56854E+01 1.56854E+01 1.86293E+01
 -1         3-1.56854E+01 1.56854E+01-1.86293E+01
 -1         4-1.56854E+01-1.56854E+01-1.86293E+01
 -1         5 1.56854E+01-1.56854E+01 1.86293E+01
 -1         6 1.56854E+01 1.56854E+01 1.86293E+01
 -1         7 1.56854E+01 1.56854E+01-1.86293E+01
 -1         8 1.56854E+01-1.56854E+01-1.86293E+01
 -1         9 6.27415E+01-6.20152E-15-7.45171E+01
 -1        10 6.27415E+01-6.27415E+01 6.21725E-15
 -1        11 6.27415E+01 3.78679E-15 7.45171E+01
 -1        12 6.27415E+01 6.27415E+01 1.45994E-14
 -1        13-1.77164E-14 6.27415E+01-7.45171E+01
 -1        14 5.70760E-15-6.27415E+01-7.45171E+01
 -1        15 1.84191E-15-6.27415E+01 7.45171E+01
 -1        16-7.76323E-15 6.27415E+01 7.45171E+01
 -1        17-6.27415E+01 3.23598E-15-7.45171E+01
 -1        18-6.27415E+01-6.27415E+01 0.00000E+00
 -1        19-6.27415E+01 1.87105E-15 7.45171E+01
 -1        20-6.27415E+01 6.27415E+01 2.22045E-15
 -3
    1PSTEP                       830         166           1          
  100CL  266 331967.3456          20                     0  166           1
 -4  ERROR       1    1
 -5  STR(%)      1    1    0    0
 -1         1 5.65768E-14
 -1         2 5.65768E-14
 -1         3 5.65768E-14
 -1         4 5.65768E-14
 -1         5 5.65768E-14
 -1         6 5.65768E-14
 -1         7 5.65768E-14
 -1         8 5.65768E-14
 -1         9 5.65768E-14
 -1        10 5.65768E-14
 -1        11 5.65768E-14
 -1        12 5.65768E-14
 -1        13 5.65768E-14
 -1        14 5.65768E-14
 -1        15 5.65768E-14
 -1        16 5.65768E-14
 -1        17 5.65768E-14
 -1        18 5.65768E-14
 -1        19 5.65768E-14
 -1        20 5.65768E-14
 -3
    1PSTEP                       831         167           1          
  100CL  267 335831.8578          20                     0  167           1
 -4  DISP        4    1
 -5  D1          1    2    1    0
 -5  D2          1    2    2    0
 -5  D3          1    2    3    0
 -5  ALL         1    2    0    0    1ALL
 -1         1 0.00000E+00 0.00000E+00 0.00000E+00
 -1         2 0.00000E+00 0.00000E+00 0.00000E+00
 -1         3 0.00000E+00 0.00000E+00 2.00000E-03
 -1         4 0.00000E+00 0.00000E+00 2.00000E-03
 -1         5 0.00000E+00 0.00000E+00 0.00000E+00
 -1         6 0.00000E+00 0.00000E+00 0.00000E+00
 -1         7 0.00000E+00 0.00000E+00 2.00000E-03
 -1         8 0.00000E+00 0.00000E+00 2.00000E-03
 -1         9 0.00000E+00 0.00000E+00 0.00000E+00
 -1        10 0.00000E+00 0.00000E+00 1.00000E-03
 -1        11 0.00000E+00 0.00000E+00 2.00000E-03
 -1        12 0.00000E+00 0.00000E+00 1.00000E-03
 -1        13 0.00000E+00 0.00000E+00 0.00000E+00
 -1        14 0.00000E+00 0.00000E+00 0.00000E+00
 -1        15 0.00000E+00 0.00000E+00 2.00000E-03
 -1        16 0.00000E+00 0.00000E+00 2.00000E-03
 -1        17 0.00000E+00 0.00000E+00 0.00000E+00
 -1        18 0.00000E+00 0.00000E+00 1.00000E-03
 -1        19 0.00000E+00 0.00000E+00 2.00000E-03
 -1        20 0.00000E+00 0.00000E+00 1.00000E-03
 -3
    1PSTEP                       832         167           1          
  100CL  267 335831.8578          20                     0  167           1
 -4  STRESS      6    1
 -5  SXX         1    4    1    1
 -5  SYY         1    4    2    2
 -5  SZZ         1    4    3    3
 -5  SXY         1    4    1    2
 -5  SYZ         1    4    2    3
 -5  SZX         1    4    3    1
 -1         1 1.88397E+02 1.88397E+02 2.23182E+02 0.00000E+00 7.17549E-15 1.25068E-14
 -1         2 1.88397E+02 1.88397E+02 2.23182E+02 0.00000E+00-1.12854E-14-1.40657E-14
 -1         3 1.88397E+02 1.88397E+02 2.23182E+02 0.00000E+00-1.75521E-15-2.08458E-14
 -1         4 1.88397E+02 1.88397E+02 2.23182E+02 0.00000E+00-4.01544E-15 3.06353E-14
 -1         5 1.88397E+02 1.88397E+02 2.23182E+02 0.00000E+00 5.15114E-15-4.40438E-15
 -1         6 1.88397E+02 1.88397E+02 2.23182E+02 0.00000E+00-3.71964E-15 1.50766E-16
 -1         7 1.88397E+02 1.88397E+02 2.23182E+02 0.00000E+00 3.36086E-14 2.45781E-14
 -1         8 1.88397E+02 1.88397E+02 2.23182E+02 0.00000E+00-5.10479E-17-6.54865E-15
 -1         9 1.88414E+02 1.88414E+02 2.23202E+02 0.00000E+00-7.28418E-15-3.55852E-15
 -1        10 1.88414E+02 1.88414E+02 2.23202E+02 0.00000E+00 7.66004E-15 6.70067E-15
 -1        11 1.88414E+02 1.88414E+02 2.23202E+02 0.00000E+00 4.42825E-15 3.89196E-15
 -1        12 1.88414E+02 1.88414E+02 2.23202E+02 0.00000E+00 4.21045E-15 2.98788E-15
 -1        13 1.88414E+02 1.88414E+02 2.23202E+02 0.00000E+00-2.99344E-15-4.40725E-16
 -1        14 1.88414E+02 1.88414E+02 2.23202E+02 0.00000E+00 7.13396E-15 1.55517E-15
 -1        15 1.88414E+02 1.88414E+02 2.23202E+02 0.00000E+00-2.02381E-14 4.33558E-15
 -1        16 1.88414E+02 1.88414E+02 2.23202E+02 0.00000E+00 7.74263E-15 7.27019E-15
 -1        17 1.88414E+02 1.88414E+02 2.23202E+02 0.00000E+00-8.46554E-16 3.95707E-15
 -1        18 1.88414E+02 1.88414E+02 2.23202E+02 0.00000E+00 1.06010E-14-1.36564E-14
 -1        19 1.88414E+02 1.88414E+02 2.23202E+02 0.00000E+00 9.09808E-15-1.94998E-15
 -1        20 1.88414E+02 1.88414E+02 2.23202E+02 0.00000E+00 4.00829E-15 7.77406E-15
 -3
    1PSTEP                       833         167           1          
  100CL  267 335831.8578          20                     0  167           1
 -4  TOSTRAIN    6    1
 -5  EXX         1    4    1    1
 -5  EYY         1    4    2    2
 -5  EZZ         1    4    3    3
 -5  EXY         1    4    1    2
 -5  EYZ         1    4    2    3
 -5  EZX         1    4    3    1
 -1         1 0.00000E+00 0.00000E+00 1.99992E-03 0.00000E+00 4.12546E-19 7.19066E-19
 -1         2 0.00000E+00 0.00000E+00 1.99992E-03 0.00000E+00-6.48839E-19-8.08690E-19
 -1         3 0.00000E+00 0.00000E+00 1.99992E-03 0.00000E+00-1.00914E-19-1.19850E-18
 -1         4 0.00000E+00 0.00000E+00 1.99992E-03 0.00000E+00-2.30863E-19 1.76134E-18
 -1         5 0.00000E+00 0.00000E+00 1.99992E-03 0.00000E+00 2.96159E-19-2.53224E-19
 -1         6 0.00000E+00 0.00000E+00 1.99992E-03 0.00000E+00-2.13856E-19 8.66809E-21
 -1         7 0.00000E+00 0.00000E+00 1.99992E-03 0.00000E+00 1.93228E-18 1.41309E-18
 -1         8 0.00000E+00 0.00000E+00 1.99992E-03 0.00000E+00-2.93494E-21-3.76507E-19
 -1         9 0.00000E+00 0.00000E+00 2.00010E-03 0.00000E+00-4.18795E-19-2.04593E-19
 -1        10 0.00000E+00 0.00000E+00 2.00010E-03 0.00000E+00 4.40404E-19 3.85247E-19
 -1        11 0.00000E+00 0.00000E+00 2.00010E-03 0.00000E+00 2.54597E-19 2.23763E-19
 -1        12 0.00000E+00 0.00000E+00 2.00010E-03 0.00000E+00 2.42075E-19 1.71784E-19
 -1        13 0.00000E+00 0.00000E+00 2.00010E-03 0.00000E+00-1.72104E-19-2.53389E-20
 -1        14 0.00000E+00 0.00000E+00 2.00010E-03 0.00000E+00 4.10158E-19 8.94127E-20
 -1        15 0.00000E+00 0.00000E+00 2.00010E-03 0.00000E+00-1.16356E-18 2.49269E-19
 -1        16 0.00000E+00 0.00000E+00 2.00010E-03 0.00000E+00 4.45153E-19 4.17991E-19
 -1        17 0.00000E+00 0.00000E+00 2.00010E-03 0.00000E+00-4.86716E-20 2.27507E-19
 -1        18 0.00000E+00 0.00000E+00 2.00010E-03 0.00000E+00 6.09490E-19-7.85158E-19
 -1        19 0.00000E+00 0.00000E+00 2.00010E-03 0.00000E+00 5.23083E-19-1.12112E-19
 -1        20 0.00000E+00 0.00000E+00 2.00010E-03 0.00000E+00 2.30452E-19 4.46960E-19
 -3
    1PSTEP                       834         167           1          
  100CL  267 335831.8578          20                     0  167           1
 -4  FORC        4    1
 -5  F1          1    2    1    0
 -5  F2          1    2    2    0
 -5  F3          1    2    3    0
 -5  ALL         1    2    0    0    1ALL
 -1         1-1.57004E+01-1.57004E+01 1.85992E+01
 -1         2-1.57004E+01 1.57004E+01 1.85992E+01
 -1         3-1.57004E+01 1.57004E+01-1.85992E+01
 -1         4-1.57004E+01-1.57004E+01-1.85992E+01
 -1         5 1.57004E+01-1.57004E+01 1.85992E+01
 -1         6 1.57004E+01 1.57004E+01 1.85992E+01
 -1         7 1.57004E+01 1.57004E+01-1.85992E+01
 -1         8 1.57004E+01-1.57004E+01-1.85992E+01
 -1         9 6.28015E+01-9.94834E-15-7.43970E+01
 -1        10 6.28015E+01-6.28015E+01 1.13243E-14
 -1        11 6.28015E+01 4.00865E-15 7.43970E+01
 -1        12 6.28015E+01 6.28015E+01 9.93650E-15
 -1        13-5.72585E-15 6.28015E+01-7.43970E+01
 -1        14 9.03927E-15-6.28015E+01-7.43970E+01
 -1        15 6.45542E-17-6.28015E+01 7.43970E+01
 -1        16-8.42950E-15 6.28015E+01 7.43970E+01
 -1        17-6.28015E+01 1.68311E-15-7.43970E+01
 -1        18-6.28015E+01-6.28015E+01 0.00000E+00
 -1        19-6.28015E+01 3.64596E-15 7.43970E+01
 -1        20-6.28015E+01 6.28015E+01 3.10862E-15
 -3
    1PSTEP                       835         167           1          
  100CL  267 335831.8578          20                     0  167           1
 -4  ERROR       1    1
 -5  STR(%)      1    1    0    0
 -1         1 1.88894E-14
 -1         2 1.88894E-14
 -1         3 1.88894E-14
 -1         4 1.88894E-14
 -1         5 1.88894E-14
 -1         6 1.88894E-14
 -1         7 1.88894E-14
 -1         8 1.88894E-14
 -1         9 1.88894E-14
 -1        10 1.88894E-14
 -1        11 1.88894E-14
 -1        12 1.88894E-14
 -1        13 1.88894E-14
 -1        14 1.88894E-14
 -1        15 1.88894E-14
 -1        16 1.88894E-14
 -1        17 1.88894E-14
 -1        18 1.88894E-14
 -1        19 1.88894E-14
 -1        20 1.88894E-14
 -3
    1PSTEP                       836         168           1          
  100CL  268 338501.8136          20                     0  168           1
 -4  DISP        4    1
 -5  D1          1    2    1    0
 -5  D2          1    2    2    0
 -5  D3          1    2    3    0
 -5  ALL         1    2    0    0    1ALL
 -1         1 0.00000E+00 0.00000E+00 0.00000E+00
 -1         2 0.00000E+00 0.00000E+00 0.00000E+00
 -1         3 0.00000E+00 0.00000E+00 2.00000E-03
 -1         4 0.00000E+00 0.00000E+00 2.00000E-03
 -1         5 0.00000E+00 0.00000E+00 0.00000E+00
 -1         6 0.00000E+00 0.00000E+00 0.00000E+00
 -1         7 0.00000E+00 0.00000E+00 2.00000E-03
 -1         8 0.00000E+00 0.00000E+00 2.00000E-03
 -1         9 0.00000E+00 0.00000E+00 0.00000E+00
 -1        10 0.00000E+00 0.00000E+00 1.00000E-03
 -1        11 0.00000E+00 0.00000E+00 2.00000E-03
 -1        12 0.00000E+00 0.00000E+00 1.00000E-03
 -1        13 0.00000E+00 0.00000E+00 0.00000E+00
 -1        14 0.00000E+00 0.00000E+00 0.00000E+00
 -1        15 0.00000E+00 0.00000E+00 2.00000E-03
 -1        16 0.00000E+00 0.00000E+00 2.00000E-03
 -1        17 0.00000E+00 0.00000E+00 0.00000E+00
 -1        18 0.00000E+00 0.00000E+00 1.00000E-03
 -1        19 0.00000E+00 0.00000E+00 2.00000E-03
 -1        20 0.00000E+00 0.00000E+00 1.00000E-03
 -3
    1PSTEP                       837         168           1          
  100CL  268 338501.8136          20                     0  168           1
 -4  STRESS      6    1
 -5  SXX         1    4    1    1
 -5  SYY         1    4    2    2
 -5  SZZ         1    4    3    3
 -5  SXY         1    4    1    2
 -5  SYZ         1    4    2    3
 -5  SZX         1    4    3    1
 -1         1 1.88520E+02 1.88520E+02 2.22936E+02 0.00000E+00 7.09930E-15 1.23741E-14
 -1         2 1.88520E+02 1.88520E+02 2.22936E+02 0.00000E+00-1.11656E-14-1.39163E-14
 -1         3 1.88520E+02 1.88520E+02 2.22936E+02 0.00000E+00-1.73657E-15-2.06244E-14
 -1         4 1.88520E+02 1.88520E+02 2.22936E+02 0.00000E+00-3.97281E-15 3.03100E-14
 -1         5 1.88520E+02 1.88520E+02 2.22936E+02 0.00000E+00 5.09645E-15-4.35761E-15
 -1         6 1.88520E+02 1.88520E+02 2.22936E+02 0.00000E+00-3.68015E-15 1.49165E-16
 -1         7 1.88520E+02 1.88520E+02 2.22936E+02 0.00000E+00 3.32517E-14 2.43171E-14
 -1         8 1.88520E+02 1.88520E+02 2.22936E+02 0.00000E+00-5.05059E-17-6.47912E-15
 -1         9 1.88537E+02 1.88537E+02 2.22956E+02 0.00000E+00-7.20684E-15-3.52074E-15
 -1        10 1.88537E+02 1.88537E+02 2.22956E+02 0.00000E+00 7.57870E-15 6.62953E-15
 -1        11 1.88537E+02 1.88537E+02 2.22956E+02 0.00000E+00 4.38123E-15 3.85063E-15
 -1        12 1.88537E+02 1.88537E+02 2.22956E+02 0.00000E+00 4.16574E-15 2.95616E-15
 -1        13 1.88537E+02 1.88537E+02 2.22956E+02 0.00000E+00-2.96166E-15-4.36046E-16
 -1        14 1.88537E+02 1.88537E+02 2.22956E+02 0.00000E+00 7.05822E-15 1.53866E-15
 -1        15 1.88537E+02 1.88537E+02 2.22956E+02 0.00000E+00-2.00232E-14 4.28955E-15
 -1        16 1.88537E+02 1.88537E+02 2.22956E+02 0.00000E+00 7.66042E-15 7.19300E-15
 -1        17 1.88537E+02 1.88537E+02 2.22956E+02 0.00000E+00-8.37566E-16 3.91506E-15
 -1        18 1.88537E+02 1.88537E+02 2.22956E+02 0.00000E+00 1.04884E-14-1.35114E-14
 -1        19 1.88537E+02 1.88537E+02 2.22956E+02 0.00000E+00 9.00148E-15-1.92928E-15
 -1        20 1.88537E+02 1.88537E+02 2.22956E+02 0.00000E+00 3.96573E-15 7.69151E-15
 -3
    1PSTEP                       838         168           1          
  100CL  268 338501.8136          20                     0  168           1
 -4  TOSTRAIN    6    1
 -5  EXX         1    4    1    1
 -5  EYY         1    4    2    2
 -5  EZZ         1    4    3    3
 -5  EXY         1    4    1    2
 -5  EYZ         1    4    2    3
 -5  EZX         1    4    3    1
 -1         1 0.00000E+00 0.00000E+00 1.99992E-03 0.00000E+00 4.12546E-19 7.19066E-19
 -1         2 0.00000E+00 0.00000E+00 1.99992E-03 0.00000E+00-6.48839E-19-8.08690E-19
 -1         3 0.00000E+00 0.00000E+00 1.99992E-03 0.00000E+00-1.00914E-19-1.19850E-18
 -1         4 0.00000E+00 0.00000E+00 1.99992E-03 0.00000E+00-2.30863E-19 1.76134E-18
 -1         5 0.00000E+00 0.00000E+00 1.99992E-03 0.00000E+00 2.96159E-19-2.53224E-19
 -1         6 0.00000E+00 0.00000E+00 1.99992E-03 0.00000E+00-2.13856E-19 8.66809E-21
 -1         7 0.00000E+00 0.00000E+00 1.99992E-03 0.00000E+00 1.93228E-18 1.41309E-18
 -1         8 0.00000E+00 0.00000E+00 1.99992E-03 0.00000E+00-2.93494E-21-3.76507E-19
 -1         9 0.00000E+00 0.00000E+00 2.00010E-03 0.00000E+00-4.18795E-19-2.04593E-19
 -1        10 0.00000E+00 0.00000E+00 2.00010E-03 0.00000E+00 4.40404E-19 3.85247E-19
 -1        11 0.00000E+00 0.00000E+00 2.00010E-03 0.00000E+00 2.54597E-19 2.23763E-19
 -1        12 0.00000E+00 0.00000E+00 2.00010E-03 0.00000E+00 2.42075E-19 1.71784E-19
 -1        13 0.00000E+00 0.00000E+00 2.00010E-03 0.00000E+00-1.72104E-19-2.53389E-20
 -1        14 0.00000E+00 0.00000E+00 2.00010E-03 0.00000E+00 4.10158E-19 8.94127E-20
 -1        15 0.00000E+00 0.00000E+00 2.00010E-03 0.00000E+00-1.16356E-18 2.49269E-19
 -1        16 0.00000E+00 0.00000E+00 2.00010E-03 0.00000E+00 4.45153E-19 4.17991E-19
 -1        17 0.00000E+00 0.00000E+00 2.00010E-03 0.00000E+00-4.86716E-20 2.27507E-19
 -1        18 0.00000E+00 0.00000E+00 2.00010E-03 0.00000E+00 6.09490E-19-7.85158E-19
 -1        19 0.00000E+00 0.00000E+00 2.00010E-03 0.00000E+00 5.23083E-19-1.12112E-19
 -1        20 0.00000E+00 0.00000E+00 2.00010E-03 0.00000E+00 2.30452E-19 4.46960E-19
 -3
    1PSTEP                       839         168           1          
  100CL  268 338501.8136          20                     0  168           1
 -4  FORC        4    1
 -5  F1          1    2    1    0
 -5  F2          1    2    2    0
 -5  F3          1    2    3    0
 -5  ALL         1    2    0    0    1ALL
 -1         1-1.57106E+01-1.57106E+01 1.85787E+01
 -1         2-1.57106E+01 1.57106E+01 1.85787E+01
 -1         3-1.57106E+01 1.57106E+01-1.85787E+01
 -1         4-1.57106E+01-1.57106E+01-1.85787E+01
 -1         5 1.57106E+01-1.57106E+01 1.85787E+01
 -1         6 1.57106E+01 1.57106E+01 1.85787E+01
 -1         7 1.57106E+01 1.57106E+01-1.85787E+01
 -1         8 1.57106E+01-1.57106E+01-1.85787E+01
 -1         9 6.28426E+01-4.67465E-15-7.43149E+01
 -1        10 6.28426E+01-6.28426E+01 5.77316E-15
 -1        11 6.28426E+01 4.23057E-15 7.43149E+01
 -1        12 6.28426E+01 6.28426E+01 1.71529E-14
 -1        13 4.87687E-15 6.28426E+01-7.43149E+01
 -1        14 9.48405E-15-6.28426E+01-7.43149E+01
 -1        15-1.05943E-14-6.28426E+01 7.43149E+01
 -1        16-6.87527E-15 6.28426E+01 7.43149E+01
 -1        17-6.28426E+01 3.46046E-15-7.43149E+01
 -1        18-6.28426E+01-6.28426E+01 3.55271E-15
 -1        19-6.28426E+01 1.86861E-15 7.43149E+01
 -1        20-6.28426E+01 6.28426E+01 2.88658E-15
 -3
    1PSTEP                       840         168           1          
  100CL  268 338501.8136          20                     0  168           1
 -4  ERROR       1    1
 -5  STR(%)      1    1    0    0
 -1         1 1.10201E-13
 -1         2 1.10201E-13
 -1         3 1.10201E-13
 -1         4 1.10201E-13
 -1         5 1.10201E-13
 -1         6 1.10201E-13
 -1         7 1.10201E-13
 -1         8 1.10201E-13
 -1         9 1.10201E-13
 -1        10 1.10201E-13
 -1        11 1.10201E-13
 -1        12 1.10201E-13
 -1        13 1.10201E-13
 -1        14 1.10201E-13
 -1        15 1.10201E-13
 -1        16 1.10201E-13
 -1        17 1.10201E-13
 -1        18 1.10201E-13
 -1        19 1.10201E-13
 -1        20 1.10201E-13
 -3
    1PSTEP                       841         169           1          
  100CL  269 341171.7694          20                     0  169           1
 -4  DISP        4    1
 -5  D1          1    2    1    0
 -5  D2          1    2    2    0
 -5  D3          1    2    3    0
 -5  ALL         1    2    0    0    1ALL
 -1         1 0.00000E+00 0.00000E+00 0.00000E+00
 -1         2 0.00000E+00 0.00000E+00 0.00000E+00
 -1         3 0.00000E+00 0.00000E+00 2.00000E-03
 -1         4 0.00000E+00 0.00000E+00 2.00000E-03
 -1         5 0.00000E+00 0.00000E+00 0.00000E+00
 -1         6 0.00000E+00 0.00000E+00 0.00000E+00
 -1         7 0.00000E+00 0.00000E+00 2.00000E-03
 -1         8 0.00000E+00 0.00000E+00 2.00000E-03
 -1         9 0.00000E+00 0.00000E+00 0.00000E+00
 -1        10 0.00000E+00 0.00000E+00 1.00000E-03
 -1        11 0.00000E+00 0.00000E+00 2.00000E-03
 -1        12 0.00000E+00 0.00000E+00 1.00000E-03
 -1        13 0.00000E+00 0.00000E+00 0.00000E+00
 -1        14 0.00000E+00 0.00000E+00 0.00000E+00
 -1        15 0.00000E+00 0.00000E+00 2.00000E-03
 -1        16 0.00000E+00 0.00000E+00 2.00000E-03
 -1        17 0.00000E+00 0.00000E+00 0.00000E+00
 -1        18 0.00000E+00 0.00000E+00 1.00000E-03
 -1        19 0.00000E+00 0.00000E+00 2.00000E-03
 -1        20 0.00000E+00 0.00000E+00 1.00000E-03
 -3
    1PSTEP                       842         169           1          
  100CL  269 341171.7694          20                     0  169           1
 -4  STRESS      6    1
 -5  SXX         1    4    1    1
 -5  SYY         1    4    2    2
 -5  SZZ         1    4    3    3
 -5  SXY         1    4    1    2
 -5  SYZ         1    4    2    3
 -5  SZX         1    4    3    1
 -1         1 1.88642E+02 1.88642E+02 2.22692E+02 0.00000E+00 7.02393E-15 1.22427E-14
 -1         2 1.88642E+02 1.88642E+02 2.22692E+02 0.00000E+00-1.10470E-14-1.37686E-14
 -1         3 1.88642E+02 1.88642E+02 2.22692E+02 0.00000E+00-1.71814E-15-2.04055E-14
 -1         4 1.88642E+02 1.88642E+02 2.22692E+02 0.00000E+00-3.93062E-15 2.99882E-14
 -1         5 1.88642E+02 1.88642E+02 2.22692E+02 0.00000E+00 5.04234E-15-4.31134E-15
 -1         6 1.88642E+02 1.88642E+02 2.22692E+02 0.00000E+00-3.64107E-15 1.47581E-16
 -1         7 1.88642E+02 1.88642E+02 2.22692E+02 0.00000E+00 3.28987E-14 2.40589E-14
 -1         8 1.88642E+02 1.88642E+02 2.22692E+02 0.00000E+00-4.99696E-17-6.41033E-15
 -1         9 1.88659E+02 1.88659E+02 2.22712E+02 0.00000E+00-7.13032E-15-3.48336E-15
 -1        10 1.88659E+02 1.88659E+02 2.22712E+02 0.00000E+00 7.49824E-15 6.55914E-15
 -1        11 1.88659E+02 1.88659E+02 2.22712E+02 0.00000E+00 4.33471E-15 3.80975E-15
 -1        12 1.88659E+02 1.88659E+02 2.22712E+02 0.00000E+00 4.12151E-15 2.92477E-15
 -1        13 1.88659E+02 1.88659E+02 2.22712E+02 0.00000E+00-2.93021E-15-4.31416E-16
 -1        14 1.88659E+02 1.88659E+02 2.22712E+02 0.00000E+00 6.98328E-15 1.52232E-15
 -1        15 1.88659E+02 1.88659E+02 2.22712E+02 0.00000E+00-1.98106E-14 4.24400E-15
 -1        16 1.88659E+02 1.88659E+02 2.22712E+02 0.00000E+00 7.57909E-15 7.11663E-15
 -1        17 1.88659E+02 1.88659E+02 2.22712E+02 0.00000E+00-8.28673E-16 3.87349E-15
 -1        18 1.88659E+02 1.88659E+02 2.22712E+02 0.00000E+00 1.03771E-14-1.33679E-14
 -1        19 1.88659E+02 1.88659E+02 2.22712E+02 0.00000E+00 8.90591E-15-1.90879E-15
 -1        20 1.88659E+02 1.88659E+02 2.22712E+02 0.00000E+00 3.92362E-15 7.60985E-15
 -3
    1PSTEP                       843         169           1          
  100CL  269 341171.7694          20                     0  169           1
 -4  TOSTRAIN    6    1
 -5  EXX         1    4    1    1
 -5  EYY         1    4    2    2
 -5  EZZ         1    4    3    3
 -5  EXY         1    4    1    2
 -5  EYZ         1    4    2    3
 -5  EZX         1    4    3    1
 -1         1 0.00000E+00 0.00000E+00 1.99992E-03 0.00000E+00 4.12546E-19 7.19066E-19
 -1         2 0.00000E+00 0.00000E+00 1.99992E-03 0.00000E+00-6.48839E-19-8.08690E-19
 -1         3 0.00000E+00 0.00000E+00 1.99992E-03 0.00000E+00-1.00914E-19-1.19850E-18
 -1         4 0.00000E+00 0.00000E+00 1.99992E-03 0.00000E+00-2.30863E-19 1.76134E-18
 -1         5 0.00000E+00 0.00000E+00 1.99992E-03 0.00000E+00 2.96159E-19-2.53224E-19
 -1         6 0.00000E+00 0.00000E+00 1.99992E-03 0.00000E+00-2.13856E-19 8.66809E-21
 -1         7 0.00000E+00 0.00000E+00 1.99992E-03 0.00000E+00 1.93228E-18 1.41309E-18
 -1         8 0.00000E+00 0.00000E+00 1.99992E-03 0.00000E+00-2.93494E-21-3.76507E-19
 -1         9 0.00000E+00 0.00000E+00 2.00010E-03 0.00000E+00-4.18795E-19-2.04593E-19
 -1        10 0.00000E+00 0.00000E+00 2.00010E-03 0.00000E+00 4.40404E-19 3.85247E-19
 -1        11 0.00000E+00 0.00000E+00 2.00010E-03 0.00000E+00 2.54597E-19 2.23763E-19
 -1        12 0.00000E+00 0.00000E+00 2.00010E-03 0.00000E+00 2.42075E-19 1.71784E-19
 -1        13 0.00000E+00 0.00000E+00 2.00010E-03 0.00000E+00-1.72104E-19-2.53389E-20
 -1        14 0.00000E+00 0.00000E+00 2.00010E-03 0.00000E+00 4.10158E-19 8.94127E-20
 -1        15 0.00000E+00 0.00000E+00 2.00010E-03 0.00000E+00-1.16356E-18 2.49269E-19
 -1        16 0.00000E+00 0.00000E+00 2.00010E-03 0.00000E+00 4.45153E-19 4.17991E-19
 -1        17 0.00000E+00 0.00000E+00 2.00010E-03 0.00000E+00-4.86716E-20 2.27507E-19
 -1        18 0.00000E+00 0.00000E+00 2.00010E-03 0.00000E+00 6.09490E-19-7.85158E-19
 -1        19 0.00000E+00 0.00000E+00 2.00010E-03 0.00000E+00 5.23083E-19-1.12112E-19
 -1        20 0.00000E+00 0.00000E+00 2.00010E-03 0.00000E+00 2.30452E-19 4.46960E-19
 -3
    1PSTEP                       844         169           1          
  100CL  269 341171.7694          20                     0  169           1
 -4  FORC        4    1
 -5  F1          1    2    1    0
 -5  F2          1    2    2    0
 -5  F3          1    2    3    0
 -5  ALL         1    2    0    0    1ALL
 -1         1-1.57208E+01-1.57208E+01 1.85584E+01
 -1         2-1.57208E+01 1.57208E+01 1.85584E+01
 -1         3-1.57208E+01 1.57208E+01-1.85584E+01
 -1         4-1.57208E+01-1.57208E+01-1.85584E+01
 -1         5 1.57208E+01-1.57208E+01 1.85584E+01
 -1         6 1.57208E+01 1.57208E+01 1.85584E+01
 -1         7 1.57208E+01 1.57208E+01-1.85584E+01
 -1         8 1.57208E+01-1.57208E+01-1.85584E+01
 -1         9 6.28832E+01-8.99772E-16-7.42337E+01
 -1        10 6.28832E+01-6.28832E+01 9.54792E-15
 -1        11 6.28832E+01 2.23204E-15 7.42337E+01
 -1        12 6.28832E+01 6.28832E+01 2.08167E-14
 -1        13-9.27839E-15 6.28832E+01-7.42337E+01
 -1        14 9.04064E-15-6.28832E+01-7.42337E+01
 -1        15 5.39226E-15-6.28832E+01 7.42337E+01
 -1        16 1.78438E-15 6.28832E+01 7.42337E+01
 -1        17-6.28832E+01 1.46304E-15-7.42337E+01
 -1        18-6.28832E+01-6.28832E+01 5.32907E-15
 -1        19-6.28832E+01 1.86763E-15 7.42337E+01
 -1        20-6.28832E+01 6.28832E+01 3.77476E-15
 -3
    1PSTEP                       845         169           1          
  100CL  269 341171.7694          20                     0  169           1
 -4  ERROR       1    1
 -5  STR(%)      1    1    0    0
 -1         1 6.33206E-14
 -1         2 6.33206E-14
 -1         3 6.33206E-14
 -1         4 6.33206E-14
 -1         5 6.33206E-14
 -1         6 6.33206E-14
 -1         7 6.33206E-14
 -1         8 6.33206E-14
 -1         9 6.33206E-14
 -1        10 6.33206E-14
 -1        11 6.33206E-14
 -1        12 6.33206E-14
 -1        13 6.33206E-14
 -1        14 6.33206E-14
 -1        15 6.33206E-14
 -1        16 6.33206E-14
 -1        17 6.33206E-14
 -1        18 6.33206E-14
 -1        19 6.33206E-14
 -1        20 6.33206E-14
 -3
    1PSTEP                       846         170           1          
  100CL  270 345176.7031          20                     0  170           1
 -4  DISP        4    1
 -5  D1          1    2    1    0
 -5  D2          1    2    2    0
 -5  D3          1    2    3    0
 -5  ALL         1    2    0    0    1ALL
 -1         1 0.00000E+00 0.00000E+00 0.00000E+00
 -1         2 0.00000E+00 0.00000E+00 0.00000E+00
 -1         3 0.00000E+00 0.00000E+00 2.00000E-03
 -1         4 0.00000E+00 0.00000E+00 2.00000E-03
 -1         5 0.00000E+00 0.00000E+00 0.00000E+00
 -1         6 0.00000E+00 0.00000E+00 0.00000E+00
 -1         7 0.00000E+00 0.00000E+00 2.00000E-03
 -1         8 0.00000E+00 0.00000E+00 2.00000E-03
 -1         9 0.00000E+00 0.00000E+00 0.00000E+00
 -1        10 0.00000E+00 0.00000E+00 1.00000E-03
 -1        11 0.00000E+00 0.00000E+00 2.00000E-03
 -1        12 0.00000E+00 0.00000E+00 1.00000E-03
 -1        13 0.00000E+00 0.00000E+00 0.00000E+00
 -1        14 0.00000E+00 0.00000E+00 0.00000E+00
 -1        15 0.00000E+00 0.00000E+00 2.00000E-03
 -1        16 0.00000E+00 0.00000E+00 2.00000E-03
 -1        17 0.00000E+00 0.00000E+00 0.00000E+00
 -1        18 0.00000E+00 0.00000E+00 1.00000E-03
 -1        19 0.00000E+00 0.00000E+00 2.00000E-03
 -1        20 0.00000E+00 0.00000E+00 1.00000E-03
 -3
    1PSTEP                       847         170           1          
  100CL  270 345176.7031          20                     0  170           1
 -4  STRESS      6    1
 -5  SXX         1    4    1    1
 -5  SYY         1    4    2    2
 -5  SZZ         1    4    3    3
 -5  SXY         1    4    1    2
 -5  SYZ         1    4    2    3
 -5  SZX         1    4    3    1
 -1         1 1.88822E+02 1.88822E+02 2.22333E+02 0.00000E+00 6.91265E-15 1.20487E-14
 -1         2 1.88822E+02 1.88822E+02 2.22333E+02 0.00000E+00-1.08720E-14-1.35505E-14
 -1         3 1.88822E+02 1.88822E+02 2.22333E+02 0.00000E+00-1.69092E-15-2.00822E-14
 -1         4 1.88822E+02 1.88822E+02 2.22333E+02 0.00000E+00-3.86835E-15 2.95131E-14
 -1         5 1.88822E+02 1.88822E+02 2.22333E+02 0.00000E+00 4.96245E-15-4.24304E-15
 -1         6 1.88822E+02 1.88822E+02 2.22333E+02 0.00000E+00-3.58339E-15 1.45243E-16
 -1         7 1.88822E+02 1.88822E+02 2.22333E+02 0.00000E+00 3.23775E-14 2.36778E-14
 -1         8 1.88822E+02 1.88822E+02 2.22333E+02 0.00000E+00-4.91780E-17-6.30877E-15
 -1         9 1.88839E+02 1.88839E+02 2.22353E+02 0.00000E+00-7.01736E-15-3.42817E-15
 -1        10 1.88839E+02 1.88839E+02 2.22353E+02 0.00000E+00 7.37945E-15 6.45522E-15
 -1        11 1.88839E+02 1.88839E+02 2.22353E+02 0.00000E+00 4.26604E-15 3.74939E-15
 -1        12 1.88839E+02 1.88839E+02 2.22353E+02 0.00000E+00 4.05622E-15 2.87843E-15
 -1        13 1.88839E+02 1.88839E+02 2.22353E+02 0.00000E+00-2.88379E-15-4.24581E-16
 -1        14 1.88839E+02 1.88839E+02 2.22353E+02 0.00000E+00 6.87264E-15 1.49821E-15
 -1        15 1.88839E+02 1.88839E+02 2.22353E+02 0.00000E+00-1.94968E-14 4.17677E-15
 -1        16 1.88839E+02 1.88839E+02 2.22353E+02 0.00000E+00 7.45902E-15 7.00388E-15
 -1        17 1.88839E+02 1.88839E+02 2.22353E+02 0.00000E+00-8.15545E-16 3.81212E-15
 -1        18 1.88839E+02 1.88839E+02 2.22353E+02 0.00000E+00 1.02127E-14-1.31562E-14
 -1        19 1.88839E+02 1.88839E+02 2.22353E+02 0.00000E+00 8.76482E-15-1.87855E-15
 -1        20 1.88839E+02 1.88839E+02 2.22353E+02 0.00000E+00 3.86146E-15 7.48929E-15
 -3
    1PSTEP                       848         170           1          
  100CL  270 345176.7031          20                     0  170           1
 -4  TOSTRAIN    6    1
 -5  EXX         1    4    1    1
 -5  EYY         1    4    2    2
 -5  EZZ         1    4    3    3
 -5  EXY         1    4    1    2
 -5  EYZ         1    4    2    3
 -5  EZX         1    4    3    1
 -1         1 0.00000E+00 0.00000E+00 1.99992E-03 0.00000E+00 4.12546E-19 7.19066E-19
 -1         2 0.00000E+00 0.00000E+00 1.99992E-03 0.00000E+00-6.48839E-19-8.08690E-19
 -1         3 0.00000E+00 0.00000E+00 1.99992E-03 0.00000E+00-1.00914E-19-1.19850E-18
 -1         4 0.00000E+00 0.00000E+00 1.99992E-03 0.00000E+00-2.30863E-19 1.76134E-18
 -1         5 0.00000E+00 0.00000E+00 1.99992E-03 0.00000E+00 2.96159E-19-2.53224E-19
 -1         6 0.00000E+00 0.00000E+00 1.99992E-03 0.00000E+00-2.13856E-19 8.66809E-21
 -1         7 0.00000E+00 0.00000E+00 1.99992E-03 0.00000E+00 1.93228E-18 1.41309E-18
 -1         8 0.00000E+00 0.00000E+00 1.99992E-03 0.00000E+00-2.93494E-21-3.76507E-19
 -1         9 0.00000E+00 0.00000E+00 2.00010E-03 0.00000E+00-4.18795E-19-2.04593E-19
 -1        10 0.00000E+00 0.00000E+00 2.00010E-03 0.00000E+00 4.40404E-19 3.85247E-19
 -1        11 0.00000E+00 0.00000E+00 2.00010E-03 0.00000E+00 2.54597E-19 2.23763E-19
 -1        12 0.00000E+00 0.00000E+00 2.00010E-03 0.00000E+00 2.42075E-19 1.71784E-19
 -1        13 0.00000E+00 0.00000E+00 2.00010E-03 0.00000E+00-1.72104E-19-2.53389E-20
 -1        14 0.00000E+00 0.00000E+00 2.00010E-03 0.00000E+00 4.10158E-19 8.94127E-20
 -1        15 0.00000E+00 0.00000E+00 2.00010E-03 0.00000E+00-1.16356E-18 2.49269E-19
 -1        16 0.00000E+00 0.00000E+00 2.00010E-03 0.00000E+00 4.45153E-19 4.17991E-19
 -1        17 0.00000E+00 0.00000E+00 2.00010E-03 0.00000E+00-4.86716E-20 2.27507E-19
 -1        18 0.00000E+00 0.00000E+00 2.00010E-03 0.00000E+00 6.09490E-19-7.85158E-19
 -1        19 0.00000E+00 0.00000E+00 2.00010E-03 0.00000E+00 5.23083E-19-1.12112E-19
 -1        20 0.00000E+00 0.00000E+00 2.00010E-03 0.00000E+00 2.30452E-19 4.46960E-19
 -3
    1PSTEP                       849         170           1          
  100CL  270 345176.7031          20                     0  170           1
 -4  FORC        4    1
 -5  F1          1    2    1    0
 -5  F2          1    2    2    0
 -5  F3          1    2    3    0
 -5  ALL         1    2    0    0    1ALL
 -1         1-1.57358E+01-1.57358E+01 1.85285E+01
 -1         2-1.57358E+01 1.57358E+01 1.85285E+01
 -1         3-1.57358E+01 1.57358E+01-1.85285E+01
 -1         4-1.57358E+01-1.57358E+01-1.85285E+01
 -1         5 1.57358E+01-1.57358E+01 1.85285E+01
 -1         6 1.57358E+01 1.57358E+01 1.85285E+01
 -1         7 1.57358E+01 1.57358E+01-1.85285E+01
 -1         8 1.57358E+01-1.57358E+01-1.85285E+01
 -1         9 6.29431E+01-8.44910E-15-7.41138E+01
 -1        10 6.29431E+01-6.29431E+01 1.31006E-14
 -1        11 6.29431E+01 2.00981E-15 7.41138E+01
 -1        12 6.29431E+01 6.29431E+01 2.99760E-14
 -1        13-4.47655E-15 6.29431E+01-7.41138E+01
 -1        14 6.37710E-15-6.29431E+01-7.41138E+01
 -1        15-1.71417E-15-6.29431E+01 7.41138E+01
 -1        16-2.43459E-15 6.29431E+01 7.41138E+01
 -1        17-6.29431E+01-3.11874E-16-7.41138E+01
 -1        18-6.29431E+01-6.29431E+01 7.10543E-15
 -1        19-6.29431E+01 1.86619E-15 7.41138E+01
 -1        20-6.29431E+01 6.29431E+01 1.17684E-14
 -3
    1PSTEP                       850         170           1          
  100CL  270 345176.7031          20                     0  170           1
 -4  ERROR       1    1
 -5  STR(%)      1    1    0    0
 -1         1 2.41923E-14
 -1         2 2.41923E-14
 -1         3 2.41923E-14
 -1         4 2.41923E-14
 -1         5 2.41923E-14
 -1         6 2.41923E-14
 -1         7 2.41923E-14
 -1         8 2.41923E-14
 -1         9 2.41923E-14
 -1        10 2.41923E-14
 -1        11 2.41923E-14
 -1        12 2.41923E-14
 -1        13 2.41923E-14
 -1        14 2.41923E-14
 -1        15 2.41923E-14
 -1        16 2.41923E-14
 -1        17 2.41923E-14
 -1        18 2.41923E-14
 -1        19 2.41923E-14
 -1        20 2.41923E-14
 -3
    1PSTEP                       851         171           1          
  100CL  271 347853.2179          20                     0  171           1
 -4  DISP        4    1
 -5  D1          1    2    1    0
 -5  D2          1    2    2    0
 -5  D3          1    2    3    0
 -5  ALL         1    2    0    0    1ALL
 -1         1 0.00000E+00 0.00000E+00 0.00000E+00
 -1         2 0.00000E+00 0.00000E+00 0.00000E+00
 -1         3 0.00000E+00 0.00000E+00 2.00000E-03
 -1         4 0.00000E+00 0.00000E+00 2.00000E-03
 -1         5 0.00000E+00 0.00000E+00 0.00000E+00
 -1         6 0.00000E+00 0.00000E+00 0.00000E+00
 -1         7 0.00000E+00 0.00000E+00 2.00000E-03
 -1         8 0.00000E+00 0.00000E+00 2.00000E-03
 -1         9 0.00000E+00 0.00000E+00 0.00000E+00
 -1        10 0.00000E+00 0.00000E+00 1.00000E-03
 -1        11 0.00000E+00 0.00000E+00 2.00000E-03
 -1        12 0.00000E+00 0.00000E+00 1.00000E-03
 -1        13 0.00000E+00 0.00000E+00 0.00000E+00
 -1        14 0.00000E+00 0.00000E+00 0.00000E+00
 -1        15 0.00000E+00 0.00000E+00 2.00000E-03
 -1        16 0.00000E+00 0.00000E+00 2.00000E-03
 -1        17 0.00000E+00 0.00000E+00 0.00000E+00
 -1        18 0.00000E+00 0.00000E+00 1.00000E-03
 -1        19 0.00000E+00 0.00000E+00 2.00000E-03
 -1        20 0.00000E+00 0.00000E+00 1.00000E-03
 -3
    1PSTEP                       852         171           1          
  100CL  271 347853.2179          20                     0  171           1
 -4  STRESS      6    1
 -5  SXX         1    4    1    1
 -5  SYY         1    4    2    2
 -5  SZZ         1    4    3    3
 -5  SXY         1    4    1    2
 -5  SYZ         1    4    2    3
 -5  SZX         1    4    3    1
 -1         1 1.88941E+02 1.88941E+02 2.22095E+02 0.00000E+00 6.83907E-15 1.19205E-14
 -1         2 1.88941E+02 1.88941E+02 2.22095E+02 0.00000E+00-1.07563E-14-1.34062E-14
 -1         3 1.88941E+02 1.88941E+02 2.22095E+02 0.00000E+00-1.67292E-15-1.98684E-14
 -1         4 1.88941E+02 1.88941E+02 2.22095E+02 0.00000E+00-3.82718E-15 2.91990E-14
 -1         5 1.88941E+02 1.88941E+02 2.22095E+02 0.00000E+00 4.90964E-15-4.19788E-15
 -1         6 1.88941E+02 1.88941E+02 2.22095E+02 0.00000E+00-3.54525E-15 1.43697E-16
 -1         7 1.88941E+02 1.88941E+02 2.22095E+02 0.00000E+00 3.20329E-14 2.34257E-14
 -1         8 1.88941E+02 1.88941E+02 2.22095E+02 0.00000E+00-4.86546E-17-6.24163E-15
 -1         9 1.88958E+02 1.88958E+02 2.22115E+02 0.00000E+00-6.94267E-15-3.39169E-15
 -1        10 1.88958E+02 1.88958E+02 2.22115E+02 0.00000E+00 7.30090E-15 6.38652E-15
 -1        11 1.88958E+02 1.88958E+02 2.22115E+02 0.00000E+00 4.22063E-15 3.70949E-15
 -1        12 1.88958E+02 1.88958E+02 2.22115E+02 0.00000E+00 4.01305E-15 2.84780E-15
 -1        13 1.88958E+02 1.88958E+02 2.22115E+02 0.00000E+00-2.85310E-15-4.20062E-16
 -1        14 1.88958E+02 1.88958E+02 2.22115E+02 0.00000E+00 6.79950E-15 1.48226E-15
 -1        15 1.88958E+02 1.88958E+02 2.22115E+02 0.00000E+00-1.92893E-14 4.13231E-15
 -1        16 1.88958E+02 1.88958E+02 2.22115E+02 0.00000E+00 7.37963E-15 6.92934E-15
 -1        17 1.88958E+02 1.88958E+02 2.22115E+02 0.00000E+00-8.06864E-16 3.77155E-15
 -1        18 1.88958E+02 1.88958E+02 2.22115E+02 0.00000E+00 1.01040E-14-1.30161E-14
 -1        19 1.88958E+02 1.88958E+02 2.22115E+02 0.00000E+00 8.67153E-15-1.85856E-15
 -1        20 1.88958E+02 1.88958E+02 2.22115E+02 0.00000E+00 3.82036E-15 7.40958E-15
 -3
    1PSTEP                       853         171           1          
  100CL  271 347853.2179          20                     0  171           1
 -4  TOSTRAIN    6    1
 -5  EXX         1    4    1    1
 -5  EYY         1    4    2    2
 -5  EZZ         1    4    3    3
 -5  EXY         1    4    1    2
 -5  EYZ         1    4    2    3
 -5  EZX         1    4    3    1
 -1         1 0.00000E+00 0.00000E+00 1.99992E-03 0.00000E+00 4.12546E-19 7.19066E-19
 -1         2 0.00000E+00 0.00000E+00 1.99992E-03 0.00000E+00-6.48839E-19-8.08690E-19
 -1         3 0.00000E+00 0.00000E+00 1.99992E-03 0.00000E+00-1.00914E-19-1.19850E-18
 -1         4 0.00000E+00 0.00000E+00 1.99992E-03 0.00000E+00-2.30863E-19 1.76134E-18
 -1         5 0.00000E+00 0.00000E+00 1.99992E-03 0.00000E+00 2.96159E-19-2.53224E-19
 -1         6 0.00000E+00 0.00000E+00 1.99992E-03 0.00000E+00-2.13856E-19 8.66809E-21
 -1         7 0.00000E+00 0.00000E+00 1.99992E-03 0.00000E+00 1.93228E-18 1.41309E-18
 -1         8 0.00000E+00 0.00000E+00 1.99992E-03 0.00000E+00-2.93494E-21-3.76507E-19
 -1         9 0.00000E+00 0.00000E+00 2.00010E-03 0.00000E+00-4.18795E-19-2.04593E-19
 -1        10 0.00000E+00 0.00000E+00 2.00010E-03 0.00000E+00 4.40404E-19 3.85247E-19
 -1        11 0.00000E+00 0.00000E+00 2.00010E-03 0.00000E+00 2.54597E-19 2.23763E-19
 -1        12 0.00000E+00 0.00000E+00 2.00010E-03 0.00000E+00 2.42075E-19 1.71784E-19
 -1        13 0.00000E+00 0.00000E+00 2.00010E-03 0.00000E+00-1.72104E-19-2.53389E-20
 -1        14 0.00000E+00 0.00000E+00 2.00010E-03 0.00000E+00 4.10158E-19 8.94127E-20
 -1        15 0.00000E+00 0.00000E+00 2.00010E-03 0.00000E+00-1.16356E-18 2.49269E-19
 -1        16 0.00000E+00 0.00000E+00 2.00010E-03 0.00000E+00 4.45153E-19 4.17991E-19
 -1        17 0.00000E+00 0.00000E+00 2.00010E-03 0.00000E+00-4.86716E-20 2.27507E-19
 -1        18 0.00000E+00 0.00000E+00 2.00010E-03 0.00000E+00 6.09490E-19-7.85158E-19
 -1        19 0.00000E+00 0.00000E+00 2.00010E-03 0.00000E+00 5.23083E-19-1.12112E-19
 -1        20 0.00000E+00 0.00000E+00 2.00010E-03 0.00000E+00 2.30452E-19 4.46960E-19
 -3
    1PSTEP                       854         171           1          
  100CL  271 347853.2179          20                     0  171           1
 -4  FORC        4    1
 -5  F1          1    2    1    0
 -5  F2          1    2    2    0
 -5  F3          1    2    3    0
 -5  ALL         1    2    0    0    1ALL
 -1         1-1.57457E+01-1.57457E+01 1.85086E+01
 -1         2-1.57457E+01 1.57457E+01 1.85086E+01
 -1         3-1.57457E+01 1.57457E+01-1.85086E+01
 -1         4-1.57457E+01-1.57457E+01-1.85086E+01
 -1         5 1.57457E+01-1.57457E+01 1.85086E+01
 -1         6 1.57457E+01 1.57457E+01 1.85086E+01
 -1         7 1.57457E+01 1.57457E+01-1.85086E+01
 -1         8 1.57457E+01-1.57457E+01-1.85086E+01
 -1         9 6.29827E+01-4.64647E-15-7.40345E+01
 -1        10 6.29827E+01-6.29827E+01 1.11022E-14
 -1        11 6.29827E+01 6.77422E-16 7.40345E+01
 -1        12 6.29827E+01 6.29827E+01 2.09832E-14
 -1        13-1.53011E-14 6.29827E+01-7.40345E+01
 -1        14 7.48799E-15-6.29827E+01-7.40345E+01
 -1        15 3.61424E-15-6.29827E+01 7.40345E+01
 -1        16-3.10081E-15 6.29827E+01 7.40345E+01
 -1        17-6.29827E+01 1.68748E-15-7.40345E+01
 -1        18-6.29827E+01-6.29827E+01 5.32907E-15
 -1        19-6.29827E+01 8.88732E-17 7.40345E+01
 -1        20-6.29827E+01 6.29827E+01 1.33227E-15
 -3
    1PSTEP                       855         171           1          
  100CL  271 347853.2179          20                     0  171           1
 -4  ERROR       1    1
 -5  STR(%)      1    1    0    0
 -1         1 1.37455E-14
 -1         2 1.37455E-14
 -1         3 1.37455E-14
 -1         4 1.37455E-14
 -1         5 1.37455E-14
 -1         6 1.37455E-14
 -1         7 1.37455E-14
 -1         8 1.37455E-14
 -1         9 1.37455E-14
 -1        10 1.37455E-14
 -1        11 1.37455E-14
 -1        12 1.37455E-14
 -1        13 1.37455E-14
 -1        14 1.37455E-14
 -1        15 1.37455E-14
 -1        16 1.37455E-14
 -1        17 1.37455E-14
 -1        18 1.37455E-14
 -1        19 1.37455E-14
 -1        20 1.37455E-14
 -3
    1PSTEP                       856         172           1          
  100CL  272 350529.7326          20                     0  172           1
 -4  DISP        4    1
 -5  D1          1    2    1    0
 -5  D2          1    2    2    0
 -5  D3          1    2    3    0
 -5  ALL         1    2    0    0    1ALL
 -1         1 0.00000E+00 0.00000E+00 0.00000E+00
 -1         2 0.00000E+00 0.00000E+00 0.00000E+00
 -1         3 0.00000E+00 0.00000E+00 2.00000E-03
 -1         4 0.00000E+00 0.00000E+00 2.00000E-03
 -1         5 0.00000E+00 0.00000E+00 0.00000E+00
 -1         6 0.00000E+00 0.00000E+00 0.00000E+00
 -1         7 0.00000E+00 0.00000E+00 2.00000E-03
 -1         8 0.00000E+00 0.00000E+00 2.00000E-03
 -1         9 0.00000E+00 0.00000E+00 0.00000E+00
 -1        10 0.00000E+00 0.00000E+00 1.00000E-03
 -1        11 0.00000E+00 0.00000E+00 2.00000E-03
 -1        12 0.00000E+00 0.00000E+00 1.00000E-03
 -1        13 0.00000E+00 0.00000E+00 0.00000E+00
 -1        14 0.00000E+00 0.00000E+00 0.00000E+00
 -1        15 0.00000E+00 0.00000E+00 2.00000E-03
 -1        16 0.00000E+00 0.00000E+00 2.00000E-03
 -1        17 0.00000E+00 0.00000E+00 0.00000E+00
 -1        18 0.00000E+00 0.00000E+00 1.00000E-03
 -1        19 0.00000E+00 0.00000E+00 2.00000E-03
 -1        20 0.00000E+00 0.00000E+00 1.00000E-03
 -3
    1PSTEP                       857         172           1          
  100CL  272 350529.7326          20                     0  172           1
 -4  STRESS      6    1
 -5  SXX         1    4    1    1
 -5  SYY         1    4    2    2
 -5  SZZ         1    4    3    3
 -5  SXY         1    4    1    2
 -5  SYZ         1    4    2    3
 -5  SZX         1    4    3    1
 -1         1 1.89058E+02 1.89058E+02 2.21859E+02 0.00000E+00 6.76628E-15 1.17936E-14
 -1         2 1.89058E+02 1.89058E+02 2.21859E+02 0.00000E+00-1.06418E-14-1.32635E-14
 -1         3 1.89058E+02 1.89058E+02 2.21859E+02 0.00000E+00-1.65511E-15-1.96570E-14
 -1         4 1.89058E+02 1.89058E+02 2.21859E+02 0.00000E+00-3.78645E-15 2.88882E-14
 -1         5 1.89058E+02 1.89058E+02 2.21859E+02 0.00000E+00 4.85738E-15-4.15320E-15
 -1         6 1.89058E+02 1.89058E+02 2.21859E+02 0.00000E+00-3.50752E-15 1.42168E-16
 -1         7 1.89058E+02 1.89058E+02 2.21859E+02 0.00000E+00 3.16919E-14 2.31764E-14
 -1         8 1.89058E+02 1.89058E+02 2.21859E+02 0.00000E+00-4.81367E-17-6.17519E-15
 -1         9 1.89075E+02 1.89075E+02 2.21879E+02 0.00000E+00-6.86878E-15-3.35559E-15
 -1        10 1.89075E+02 1.89075E+02 2.21879E+02 0.00000E+00 7.22320E-15 6.31854E-15
 -1        11 1.89075E+02 1.89075E+02 2.21879E+02 0.00000E+00 4.17571E-15 3.67001E-15
 -1        12 1.89075E+02 1.89075E+02 2.21879E+02 0.00000E+00 3.97033E-15 2.81749E-15
 -1        13 1.89075E+02 1.89075E+02 2.21879E+02 0.00000E+00-2.82273E-15-4.15591E-16
 -1        14 1.89075E+02 1.89075E+02 2.21879E+02 0.00000E+00 6.72713E-15 1.46648E-15
 -1        15 1.89075E+02 1.89075E+02 2.21879E+02 0.00000E+00-1.90840E-14 4.08833E-15
 -1        16 1.89075E+02 1.89075E+02 2.21879E+02 0.00000E+00 7.30108E-15 6.85559E-15
 -1        17 1.89075E+02 1.89075E+02 2.21879E+02 0.00000E+00-7.98277E-16 3.73141E-15
 -1        18 1.89075E+02 1.89075E+02 2.21879E+02 0.00000E+00 9.99642E-15-1.28776E-14
 -1        19 1.89075E+02 1.89075E+02 2.21879E+02 0.00000E+00 8.57923E-15-1.83877E-15
 -1        20 1.89075E+02 1.89075E+02 2.21879E+02 0.00000E+00 3.77970E-15 7.33072E-15
 -3
    1PSTEP                       858         172           1          
  100CL  272 350529.7326          20                     0  172           1
 -4  TOSTRAIN    6    1
 -5  EXX         1    4    1    1
 -5  EYY         1    4    2    2
 -5  EZZ         1    4    3    3
 -5  EXY         1    4    1    2
 -5  EYZ         1    4    2    3
 -5  EZX         1    4    3    1
 -1         1 0.00000E+00 0.00000E+00 1.99992E-03 0.00000E+00 4.12546E-19 7.19066E-19
 -1         2 0.00000E+00 0.00000E+00 1.99992E-03 0.00000E+00-6.48839E-19-8.08690E-19
 -1         3 0.00000E+00 0.00000E+00 1.99992E-03 0.00000E+00-1.00914E-19-1.19850E-18
 -1         4 0.00000E+00 0.00000E+00 1.99992E-03 0.00000E+00-2.30863E-19 1.76134E-18
 -1         5 0.00000E+00 0.00000E+00 1.99992E-03 0.00000E+00 2.96159E-19-2.53224E-19
 -1         6 0.00000E+00 0.00000E+00 1.99992E-03 0.00000E+00-2.13856E-19 8.66809E-21
 -1         7 0.00000E+00 0.00000E+00 1.99992E-03 0.00000E+00 1.93228E-18 1.41309E-18
 -1         8 0.00000E+00 0.00000E+00 1.99992E-03 0.00000E+00-2.93494E-21-3.76507E-19
 -1         9 0.00000E+00 0.00000E+00 2.00010E-03 0.00000E+00-4.18795E-19-2.04593E-19
 -1        10 0.00000E+00 0.00000E+00 2.00010E-03 0.00000E+00 4.40404E-19 3.85247E-19
 -1        11 0.00000E+00 0.00000E+00 2.00010E-03 0.00000E+00 2.54597E-19 2.23763E-19
 -1        12 0.00000E+00 0.00000E+00 2.00010E-03 0.00000E+00 2.42075E-19 1.71784E-19
 -1        13 0.00000E+00 0.00000E+00 2.00010E-03 0.00000E+00-1.72104E-19-2.53389E-20
 -1        14 0.00000E+00 0.00000E+00 2.00010E-03 0.00000E+00 4.10158E-19 8.94127E-20
 -1        15 0.00000E+00 0.00000E+00 2.00010E-03 0.00000E+00-1.16356E-18 2.49269E-19
 -1        16 0.00000E+00 0.00000E+00 2.00010E-03 0.00000E+00 4.45153E-19 4.17991E-19
 -1        17 0.00000E+00 0.00000E+00 2.00010E-03 0.00000E+00-4.86716E-20 2.27507E-19
 -1        18 0.00000E+00 0.00000E+00 2.00010E-03 0.00000E+00 6.09490E-19-7.85158E-19
 -1        19 0.00000E+00 0.00000E+00 2.00010E-03 0.00000E+00 5.23083E-19-1.12112E-19
 -1        20 0.00000E+00 0.00000E+00 2.00010E-03 0.00000E+00 2.30452E-19 4.46960E-19
 -3
    1PSTEP                       859         172           1          
  100CL  272 350529.7326          20                     0  172           1
 -4  FORC        4    1
 -5  F1          1    2    1    0
 -5  F2          1    2    2    0
 -5  F3          1    2    3    0
 -5  ALL         1    2    0    0    1ALL
 -1         1-1.57555E+01-1.57555E+01 1.84890E+01
 -1         2-1.57555E+01 1.57555E+01 1.84890E+01
 -1         3-1.57555E+01 1.57555E+01-1.84890E+01
 -1         4-1.57555E+01-1.57555E+01-1.84890E+01
 -1         5 1.57555E+01-1.57555E+01 1.84890E+01
 -1         6 1.57555E+01 1.57555E+01 1.84890E+01
 -1         7 1.57555E+01 1.57555E+01-1.84890E+01
 -1         8 1.57555E+01-1.57555E+01-1.84890E+01
 -1         9 6.30219E+01-6.20066E-15-7.39561E+01
 -1        10 6.30219E+01-6.30219E+01 7.99361E-15
 -1        11 6.30219E+01 4.55257E-16 7.39561E+01
 -1        12 6.30219E+01 6.30219E+01 1.40998E-14
 -1        13-1.13043E-14 6.30219E+01-7.39561E+01
 -1        14 1.92570E-14-6.30219E+01-7.39561E+01
 -1        15-1.71548E-15-6.30219E+01 7.39561E+01
 -1        16-4.43316E-15 6.30219E+01 7.39561E+01
 -1        17-6.30219E+01-3.09972E-16-7.39561E+01
 -1        18-6.30219E+01-6.30219E+01 3.55271E-15
 -1        19-6.30219E+01-1.68843E-15 7.39561E+01
 -1        20-6.30219E+01 6.30219E+01 7.32747E-15
 -3
    1PSTEP                       860         172           1          
  100CL  272 350529.7326          20                     0  172           1
 -4  ERROR       1    1
 -5  STR(%)      1    1    0    0
 -1         1 1.50705E-14
 -1         2 1.50705E-14
 -1         3 1.50705E-14
 -1         4 1.50705E-14
 -1         5 1.50705E-14
 -1         6 1.50705E-14
 -1         7 1.50705E-14
 -1         8 1.50705E-14
 -1         9 1.50705E-14
 -1        10 1.50705E-14
 -1        11 1.50705E-14
 -1        12 1.50705E-14
 -1        13 1.50705E-14
 -1        14 1.50705E-14
 -1        15 1.50705E-14
 -1        16 1.50705E-14
 -1        17 1.50705E-14
 -1        18 1.50705E-14
 -1        19 1.50705E-14
 -1        20 1.50705E-14
 -3
    1PSTEP                       861         173           1          
  100CL  273 354544.5048          20                     0  173           1
 -4  DISP        4    1
 -5  D1          1    2    1    0
 -5  D2          1    2    2    0
 -5  D3          1    2    3    0
 -5  ALL         1    2    0    0    1ALL
 -1         1 0.00000E+00 0.00000E+00 0.00000E+00
 -1         2 0.00000E+00 0.00000E+00 0.00000E+00
 -1         3 0.00000E+00 0.00000E+00 2.00000E-03
 -1         4 0.00000E+00 0.00000E+00 2.00000E-03
 -1         5 0.00000E+00 0.00000E+00 0.00000E+00
 -1         6 0.00000E+00 0.00000E+00 0.00000E+00
 -1         7 0.00000E+00 0.00000E+00 2.00000E-03
 -1         8 0.00000E+00 0.00000E+00 2.00000E-03
 -1         9 0.00000E+00 0.00000E+00 0.00000E+00
 -1        10 0.00000E+00 0.00000E+00 1.00000E-03
 -1        11 0.00000E+00 0.00000E+00 2.00000E-03
 -1        12 0.00000E+00 0.00000E+00 1.00000E-03
 -1        13 0.00000E+00 0.00000E+00 0.00000E+00
 -1        14 0.00000E+00 0.00000E+00 0.00000E+00
 -1        15 0.00000E+00 0.00000E+00 2.00000E-03
 -1        16 0.00000E+00 0.00000E+00 2.00000E-03
 -1        17 0.00000E+00 0.00000E+00 0.00000E+00
 -1        18 0.00000E+00 0.00000E+00 1.00000E-03
 -1        19 0.00000E+00 0.00000E+00 2.00000E-03
 -1        20 0.00000E+00 0.00000E+00 1.00000E-03
 -3
    1PSTEP                       862         173           1          
  100CL  273 354544.5048          20                     0  173           1
 -4  STRESS      6    1
 -5  SXX         1    4    1    1
 -5  SYY         1    4    2    2
 -5  SZZ         1    4    3    3
 -5  SXY         1    4    1    2
 -5  SYZ         1    4    2    3
 -5  SZX         1    4    3    1
 -1         1 1.89232E+02 1.89232E+02 2.21512E+02 0.00000E+00 6.65883E-15 1.16063E-14
 -1         2 1.89232E+02 1.89232E+02 2.21512E+02 0.00000E+00-1.04728E-14-1.30529E-14
 -1         3 1.89232E+02 1.89232E+02 2.21512E+02 0.00000E+00-1.62883E-15-1.93448E-14
 -1         4 1.89232E+02 1.89232E+02 2.21512E+02 0.00000E+00-3.72631E-15 2.84294E-14
 -1         5 1.89232E+02 1.89232E+02 2.21512E+02 0.00000E+00 4.78024E-15-4.08725E-15
 -1         6 1.89232E+02 1.89232E+02 2.21512E+02 0.00000E+00-3.45181E-15 1.39910E-16
 -1         7 1.89232E+02 1.89232E+02 2.21512E+02 0.00000E+00 3.11886E-14 2.28084E-14
 -1         8 1.89232E+02 1.89232E+02 2.21512E+02 0.00000E+00-4.73723E-17-6.07713E-15
 -1         9 1.89249E+02 1.89249E+02 2.21532E+02 0.00000E+00-6.75970E-15-3.30230E-15
 -1        10 1.89249E+02 1.89249E+02 2.21532E+02 0.00000E+00 7.10849E-15 6.21820E-15
 -1        11 1.89249E+02 1.89249E+02 2.21532E+02 0.00000E+00 4.10940E-15 3.61172E-15
 -1        12 1.89249E+02 1.89249E+02 2.21532E+02 0.00000E+00 3.90728E-15 2.77274E-15
 -1        13 1.89249E+02 1.89249E+02 2.21532E+02 0.00000E+00-2.77790E-15-4.08991E-16
 -1        14 1.89249E+02 1.89249E+02 2.21532E+02 0.00000E+00 6.62029E-15 1.44319E-15
 -1        15 1.89249E+02 1.89249E+02 2.21532E+02 0.00000E+00-1.87809E-14 4.02340E-15
 -1        16 1.89249E+02 1.89249E+02 2.21532E+02 0.00000E+00 7.18513E-15 6.74671E-15
 -1        17 1.89249E+02 1.89249E+02 2.21532E+02 0.00000E+00-7.85599E-16 3.67215E-15
 -1        18 1.89249E+02 1.89249E+02 2.21532E+02 0.00000E+00 9.83767E-15-1.26731E-14
 -1        19 1.89249E+02 1.89249E+02 2.21532E+02 0.00000E+00 8.44299E-15-1.80957E-15
 -1        20 1.89249E+02 1.89249E+02 2.21532E+02 0.00000E+00 3.71968E-15 7.21430E-15
 -3
    1PSTEP                       863         173           1          
  100CL  273 354544.5048          20                     0  173           1
 -4  TOSTRAIN    6    1
 -5  EXX         1    4    1    1
 -5  EYY         1    4    2    2
 -5  EZZ         1    4    3    3
 -5  EXY         1    4    1    2
 -5  EYZ         1    4    2    3
 -5  EZX         1    4    3    1
 -1         1 0.00000E+00 0.00000E+00 1.99992E-03 0.00000E+00 4.12546E-19 7.19066E-19
 -1         2 0.00000E+00 0.00000E+00 1.99992E-03 0.00000E+00-6.48839E-19-8.08690E-19
 -1         3 0.00000E+00 0.00000E+00 1.99992E-03 0.00000E+00-1.00914E-19-1.19850E-18
 -1         4 0.00000E+00 0.00000E+00 1.99992E-03 0.00000E+00-2.30863E-19 1.76134E-18
 -1         5 0.00000E+00 0.00000E+00 1.99992E-03 0.00000E+00 2.96159E-19-2.53224E-19
 -1         6 0.00000E+00 0.00000E+00 1.99992E-03 0.00000E+00-2.13856E-19 8.66809E-21
 -1         7 0.00000E+00 0.00000E+00 1.99992E-03 0.00000E+00 1.93228E-18 1.41309E-18
 -1         8 0.00000E+00 0.00000E+00 1.99992E-03 0.00000E+00-2.93494E-21-3.76507E-19
 -1         9 0.00000E+00 0.00000E+00 2.00010E-03 0.00000E+00-4.18795E-19-2.04593E-19
 -1        10 0.00000E+00 0.00000E+00 2.00010E-03 0.00000E+00 4.40404E-19 3.85247E-19
 -1        11 0.00000E+00 0.00000E+00 2.00010E-03 0.00000E+00 2.54597E-19 2.23763E-19
 -1        12 0.00000E+00 0.00000E+00 2.00010E-03 0.00000E+00 2.42075E-19 1.71784E-19
 -1        13 0.00000E+00 0.00000E+00 2.00010E-03 0.00000E+00-1.72104E-19-2.53389E-20
 -1        14 0.00000E+00 0.00000E+00 2.00010E-03 0.00000E+00 4.10158E-19 8.94127E-20
 -1        15 0.00000E+00 0.00000E+00 2.00010E-03 0.00000E+00-1.16356E-18 2.49269E-19
 -1        16 0.00000E+00 0.00000E+00 2.00010E-03 0.00000E+00 4.45153E-19 4.17991E-19
 -1        17 0.00000E+00 0.00000E+00 2.00010E-03 0.00000E+00-4.86716E-20 2.27507E-19
 -1        18 0.00000E+00 0.00000E+00 2.00010E-03 0.00000E+00 6.09490E-19-7.85158E-19
 -1        19 0.00000E+00 0.00000E+00 2.00010E-03 0.00000E+00 5.23083E-19-1.12112E-19
 -1        20 0.00000E+00 0.00000E+00 2.00010E-03 0.00000E+00 2.30452E-19 4.46960E-19
 -3
    1PSTEP                       864         173           1          
  100CL  273 354544.5048          20                     0  173           1
 -4  FORC        4    1
 -5  F1          1    2    1    0
 -5  F2          1    2    2    0
 -5  F3          1    2    3    0
 -5  ALL         1    2    0    0    1ALL
 -1         1-1.57700E+01-1.57700E+01 1.84601E+01
 -1         2-1.57700E+01 1.57700E+01 1.84601E+01
 -1         3-1.57700E+01 1.57700E+01-1.84601E+01
 -1         4-1.57700E+01-1.57700E+01-1.84601E+01
 -1         5 1.57700E+01-1.57700E+01 1.84601E+01
 -1         6 1.57700E+01 1.57700E+01 1.84601E+01
 -1         7 1.57700E+01 1.57700E+01-1.84601E+01
 -1         8 1.57700E+01-1.57700E+01-1.84601E+01
 -1         9 6.30798E+01-4.42413E-15-7.38404E+01
 -1        10 6.30798E+01-6.30798E+01 9.54792E-15
 -1        11 6.30798E+01 2.00939E-15 7.38404E+01
 -1        12 6.30798E+01 6.30798E+01 1.99563E-14
 -1        13-2.58888E-15 6.30798E+01-7.38404E+01
 -1        14 1.05982E-14-6.30798E+01-7.38404E+01
 -1        15 3.61262E-15-6.30798E+01 7.38404E+01
 -1        16-3.76715E-15 6.30798E+01 7.38404E+01
 -1        17-6.30798E+01 3.24414E-15-7.38404E+01
 -1        18-6.30798E+01-6.30798E+01 5.32907E-15
 -1        19-6.30798E+01 8.65309E-17 7.38404E+01
 -1        20-6.30798E+01 6.30798E+01 5.55112E-15
 -3
    1PSTEP                       865         173           1          
  100CL  273 354544.5048          20                     0  173           1
 -4  ERROR       1    1
 -5  STR(%)      1    1    0    0
 -1         1 1.70629E-14
 -1         2 1.70629E-14
 -1         3 1.70629E-14
 -1         4 1.70629E-14
 -1         5 1.70629E-14
 -1         6 1.70629E-14
 -1         7 1.70629E-14
 -1         8 1.70629E-14
 -1         9 1.70629E-14
 -1        10 1.70629E-14
 -1        11 1.70629E-14
 -1        12 1.70629E-14
 -1        13 1.70629E-14
 -1        14 1.70629E-14
 -1        15 1.70629E-14
 -1        16 1.70629E-14
 -1        17 1.70629E-14
 -1        18 1.70629E-14
 -1        19 1.70629E-14
 -1        20 1.70629E-14
 -3
    1PSTEP                       866         174           1          
  100CL  274 357316.3938          20                     0  174           1
 -4  DISP        4    1
 -5  D1          1    2    1    0
 -5  D2          1    2    2    0
 -5  D3          1    2    3    0
 -5  ALL         1    2    0    0    1ALL
 -1         1 0.00000E+00 0.00000E+00 0.00000E+00
 -1         2 0.00000E+00 0.00000E+00 0.00000E+00
 -1         3 0.00000E+00 0.00000E+00 2.00000E-03
 -1         4 0.00000E+00 0.00000E+00 2.00000E-03
 -1         5 0.00000E+00 0.00000E+00 0.00000E+00
 -1         6 0.00000E+00 0.00000E+00 0.00000E+00
 -1         7 0.00000E+00 0.00000E+00 2.00000E-03
 -1         8 0.00000E+00 0.00000E+00 2.00000E-03
 -1         9 0.00000E+00 0.00000E+00 0.00000E+00
 -1        10 0.00000E+00 0.00000E+00 1.00000E-03
 -1        11 0.00000E+00 0.00000E+00 2.00000E-03
 -1        12 0.00000E+00 0.00000E+00 1.00000E-03
 -1        13 0.00000E+00 0.00000E+00 0.00000E+00
 -1        14 0.00000E+00 0.00000E+00 0.00000E+00
 -1        15 0.00000E+00 0.00000E+00 2.00000E-03
 -1        16 0.00000E+00 0.00000E+00 2.00000E-03
 -1        17 0.00000E+00 0.00000E+00 0.00000E+00
 -1        18 0.00000E+00 0.00000E+00 1.00000E-03
 -1        19 0.00000E+00 0.00000E+00 2.00000E-03
 -1        20 0.00000E+00 0.00000E+00 1.00000E-03
 -3
    1PSTEP                       867         174           1          
  100CL  274 357316.3938          20                     0  174           1
 -4  STRESS      6    1
 -5  SXX         1    4    1    1
 -5  SYY         1    4    2    2
 -5  SZZ         1    4    3    3
 -5  SXY         1    4    1    2
 -5  SYZ         1    4    2    3
 -5  SZX         1    4    3    1
 -1         1 1.89350E+02 1.89350E+02 2.21275E+02 0.00000E+00 6.58546E-15 1.14784E-14
 -1         2 1.89350E+02 1.89350E+02 2.21275E+02 0.00000E+00-1.03574E-14-1.29091E-14
 -1         3 1.89350E+02 1.89350E+02 2.21275E+02 0.00000E+00-1.61088E-15-1.91316E-14
 -1         4 1.89350E+02 1.89350E+02 2.21275E+02 0.00000E+00-3.68526E-15 2.81162E-14
 -1         5 1.89350E+02 1.89350E+02 2.21275E+02 0.00000E+00 4.72757E-15-4.04221E-15
 -1         6 1.89350E+02 1.89350E+02 2.21275E+02 0.00000E+00-3.41378E-15 1.38369E-16
 -1         7 1.89350E+02 1.89350E+02 2.21275E+02 0.00000E+00 3.08450E-14 2.25570E-14
 -1         8 1.89350E+02 1.89350E+02 2.21275E+02 0.00000E+00-4.68503E-17-6.01017E-15
 -1         9 1.89367E+02 1.89367E+02 2.21295E+02 0.00000E+00-6.68521E-15-3.26591E-15
 -1        10 1.89367E+02 1.89367E+02 2.21295E+02 0.00000E+00 7.03016E-15 6.14968E-15
 -1        11 1.89367E+02 1.89367E+02 2.21295E+02 0.00000E+00 4.06412E-15 3.57193E-15
 -1        12 1.89367E+02 1.89367E+02 2.21295E+02 0.00000E+00 3.86423E-15 2.74219E-15
 -1        13 1.89367E+02 1.89367E+02 2.21295E+02 0.00000E+00-2.74729E-15-4.04485E-16
 -1        14 1.89367E+02 1.89367E+02 2.21295E+02 0.00000E+00 6.54735E-15 1.42729E-15
 -1        15 1.89367E+02 1.89367E+02 2.21295E+02 0.00000E+00-1.85740E-14 3.97907E-15
 -1        16 1.89367E+02 1.89367E+02 2.21295E+02 0.00000E+00 7.10596E-15 6.67237E-15
 -1        17 1.89367E+02 1.89367E+02 2.21295E+02 0.00000E+00-7.76943E-16 3.63169E-15
 -1        18 1.89367E+02 1.89367E+02 2.21295E+02 0.00000E+00 9.72928E-15-1.25335E-14
 -1        19 1.89367E+02 1.89367E+02 2.21295E+02 0.00000E+00 8.34996E-15-1.78963E-15
 -1        20 1.89367E+02 1.89367E+02 2.21295E+02 0.00000E+00 3.67869E-15 7.13481E-15
 -3
    1PSTEP                       868         174           1          
  100CL  274 357316.3938          20                     0  174           1
 -4  TOSTRAIN    6    1
 -5  EXX         1    4    1    1
 -5  EYY         1    4    2    2
 -5  EZZ         1    4    3    3
 -5  EXY         1    4    1    2
 -5  EYZ         1    4    2    3
 -5  EZX         1    4    3    1
 -1         1 0.00000E+00 0.00000E+00 1.99992E-03 0.00000E+00 4.12546E-19 7.19066E-19
 -1         2 0.00000E+00 0.00000E+00 1.99992E-03 0.00000E+00-6.48839E-19-8.08690E-19
 -1         3 0.00000E+00 0.00000E+00 1.99992E-03 0.00000E+00-1.00914E-19-1.19850E-18
 -1         4 0.00000E+00 0.00000E+00 1.99992E-03 0.00000E+00-2.30863E-19 1.76134E-18
 -1         5 0.00000E+00 0.00000E+00 1.99992E-03 0.00000E+00 2.96159E-19-2.53224E-19
 -1         6 0.00000E+00 0.00000E+00 1.99992E-03 0.00000E+00-2.13856E-19 8.66809E-21
 -1         7 0.00000E+00 0.00000E+00 1.99992E-03 0.00000E+00 1.93228E-18 1.41309E-18
 -1         8 0.00000E+00 0.00000E+00 1.99992E-03 0.00000E+00-2.93494E-21-3.76507E-19
 -1         9 0.00000E+00 0.00000E+00 2.00010E-03 0.00000E+00-4.18795E-19-2.04593E-19
 -1        10 0.00000E+00 0.00000E+00 2.00010E-03 0.00000E+00 4.40404E-19 3.85247E-19
 -1        11 0.00000E+00 0.00000E+00 2.00010E-03 0.00000E+00 2.54597E-19 2.23763E-19
 -1        12 0.00000E+00 0.00000E+00 2.00010E-03 0.00000E+00 2.42075E-19 1.71784E-19
 -1        13 0.00000E+00 0.00000E+00 2.00010E-03 0.00000E+00-1.72104E-19-2.53389E-20
 -1        14 0.00000E+00 0.00000E+00 2.00010E-03 0.00000E+00 4.10158E-19 8.94127E-20
 -1        15 0.00000E+00 0.00000E+00 2.00010E-03 0.00000E+00-1.16356E-18 2.49269E-19
 -1        16 0.00000E+00 0.00000E+00 2.00010E-03 0.00000E+00 4.45153E-19 4.17991E-19
 -1        17 0.00000E+00 0.00000E+00 2.00010E-03 0.00000E+00-4.86716E-20 2.27507E-19
 -1        18 0.00000E+00 0.00000E+00 2.00010E-03 0.00000E+00 6.09490E-19-7.85158E-19
 -1        19 0.00000E+00 0.00000E+00 2.00010E-03 0.00000E+00 5.23083E-19-1.12112E-19
 -1        20 0.00000E+00 0.00000E+00 2.00010E-03 0.00000E+00 2.30452E-19 4.46960E-19
 -3
    1PSTEP                       869         174           1          
  100CL  274 357316.3938          20                     0  174           1
 -4  FORC        4    1
 -5  F1          1    2    1    0
 -5  F2          1    2    2    0
 -5  F3          1    2    3    0
 -5  ALL         1    2    0    0    1ALL
 -1         1-1.57798E+01-1.57798E+01 1.84403E+01
 -1         2-1.57798E+01 1.57798E+01 1.84403E+01
 -1         3-1.57798E+01 1.57798E+01-1.84403E+01
 -1         4-1.57798E+01-1.57798E+01-1.84403E+01
 -1         5 1.57798E+01-1.57798E+01 1.84403E+01
 -1         6 1.57798E+01 1.57798E+01 1.84403E+01
 -1         7 1.57798E+01 1.57798E+01-1.84403E+01
 -1         8 1.57798E+01-1.57798E+01-1.84403E+01
 -1         9 6.31193E+01-8.22652E-15-7.37613E+01
 -1        10 6.31193E+01-6.31193E+01 8.88178E-15
 -1        11 6.31193E+01 6.00607E-15 7.37613E+01
 -1        12 6.31193E+01 6.31193E+01 1.59039E-14
 -1        13-6.97417E-15 6.31193E+01-7.37613E+01
 -1        14 7.93436E-15-6.31193E+01-7.37613E+01
 -1        15-7.04618E-15-6.31193E+01 7.37613E+01
 -1        16-1.57576E-14 6.31193E+01 7.37613E+01
 -1        17-6.31193E+01 5.24349E-15-7.37613E+01
 -1        18-6.31193E+01-6.31193E+01 7.10543E-15
 -1        19-6.31193E+01 1.86193E-15 7.37613E+01
 -1        20-6.31193E+01 6.31193E+01 2.66454E-15
 -3
    1PSTEP                       870         174           1          
  100CL  274 357316.3938          20                     0  174           1
 -4  ERROR       1    1
 -5  STR(%)      1    1    0    0
 -1         1 1.83952E-14
 -1         2 1.83952E-14
 -1         3 1.83952E-14
 -1         4 1.83952E-14
 -1         5 1.83952E-14
 -1         6 1.83952E-14
 -1         7 1.83952E-14
 -1         8 1.83952E-14
 -1         9 1.83952E-14
 -1        10 1.83952E-14
 -1        11 1.83952E-14
 -1        12 1.83952E-14
 -1        13 1.83952E-14
 -1        14 1.83952E-14
 -1        15 1.83952E-14
 -1        16 1.83952E-14
 -1        17 1.83952E-14
 -1        18 1.83952E-14
 -1        19 1.83952E-14
 -1        20 1.83952E-14
 -3
    1PSTEP                       871         175           1          
  100CL  275 360088.2829          20                     0  175           1
 -4  DISP        4    1
 -5  D1          1    2    1    0
 -5  D2          1    2    2    0
 -5  D3          1    2    3    0
 -5  ALL         1    2    0    0    1ALL
 -1         1 0.00000E+00 0.00000E+00 0.00000E+00
 -1         2 0.00000E+00 0.00000E+00 0.00000E+00
 -1         3 0.00000E+00 0.00000E+00 2.00000E-03
 -1         4 0.00000E+00 0.00000E+00 2.00000E-03
 -1         5 0.00000E+00 0.00000E+00 0.00000E+00
 -1         6 0.00000E+00 0.00000E+00 0.00000E+00
 -1         7 0.00000E+00 0.00000E+00 2.00000E-03
 -1         8 0.00000E+00 0.00000E+00 2.00000E-03
 -1         9 0.00000E+00 0.00000E+00 0.00000E+00
 -1        10 0.00000E+00 0.00000E+00 1.00000E-03
 -1        11 0.00000E+00 0.00000E+00 2.00000E-03
 -1        12 0.00000E+00 0.00000E+00 1.00000E-03
 -1        13 0.00000E+00 0.00000E+00 0.00000E+00
 -1        14 0.00000E+00 0.00000E+00 0.00000E+00
 -1        15 0.00000E+00 0.00000E+00 2.00000E-03
 -1        16 0.00000E+00 0.00000E+00 2.00000E-03
 -1        17 0.00000E+00 0.00000E+00 0.00000E+00
 -1        18 0.00000E+00 0.00000E+00 1.00000E-03
 -1        19 0.00000E+00 0.00000E+00 2.00000E-03
 -1        20 0.00000E+00 0.00000E+00 1.00000E-03
 -3
    1PSTEP                       872         175           1          
  100CL  275 360088.2829          20                     0  175           1
 -4  STRESS      6    1
 -5  SXX         1    4    1    1
 -5  SYY         1    4    2    2
 -5  SZZ         1    4    3    3
 -5  SXY         1    4    1    2
 -5  SYZ         1    4    2    3
 -5  SZX         1    4    3    1
 -1         1 1.89468E+02 1.89468E+02 2.21041E+02 0.00000E+00 6.51290E-15 1.13519E-14
 -1         2 1.89468E+02 1.89468E+02 2.21041E+02 0.00000E+00-1.02433E-14-1.27668E-14
 -1         3 1.89468E+02 1.89468E+02 2.21041E+02 0.00000E+00-1.59313E-15-1.89208E-14
 -1         4 1.89468E+02 1.89468E+02 2.21041E+02 0.00000E+00-3.64465E-15 2.78064E-14
 -1         5 1.89468E+02 1.89468E+02 2.21041E+02 0.00000E+00 4.67548E-15-3.99767E-15
 -1         6 1.89468E+02 1.89468E+02 2.21041E+02 0.00000E+00-3.37617E-15 1.36844E-16
 -1         7 1.89468E+02 1.89468E+02 2.21041E+02 0.00000E+00 3.05051E-14 2.23085E-14
 -1         8 1.89468E+02 1.89468E+02 2.21041E+02 0.00000E+00-4.63341E-17-5.94394E-15
 -1         9 1.89485E+02 1.89485E+02 2.21061E+02 0.00000E+00-6.61155E-15-3.22993E-15
 -1        10 1.89485E+02 1.89485E+02 2.21061E+02 0.00000E+00 6.95270E-15 6.08192E-15
 -1        11 1.89485E+02 1.89485E+02 2.21061E+02 0.00000E+00 4.01934E-15 3.53257E-15
 -1        12 1.89485E+02 1.89485E+02 2.21061E+02 0.00000E+00 3.82165E-15 2.71198E-15
 -1        13 1.89485E+02 1.89485E+02 2.21061E+02 0.00000E+00-2.71702E-15-4.00028E-16
 -1        14 1.89485E+02 1.89485E+02 2.21061E+02 0.00000E+00 6.47521E-15 1.41157E-15
 -1        15 1.89485E+02 1.89485E+02 2.21061E+02 0.00000E+00-1.83693E-14 3.93523E-15
 -1        16 1.89485E+02 1.89485E+02 2.21061E+02 0.00000E+00 7.02767E-15 6.59885E-15
 -1        17 1.89485E+02 1.89485E+02 2.21061E+02 0.00000E+00-7.68382E-16 3.59167E-15
 -1        18 1.89485E+02 1.89485E+02 2.21061E+02 0.00000E+00 9.62207E-15-1.23954E-14
 -1        19 1.89485E+02 1.89485E+02 2.21061E+02 0.00000E+00 8.25795E-15-1.76992E-15
 -1        20 1.89485E+02 1.89485E+02 2.21061E+02 0.00000E+00 3.63816E-15 7.05619E-15
 -3
    1PSTEP                       873         175           1          
  100CL  275 360088.2829          20                     0  175           1
 -4  TOSTRAIN    6    1
 -5  EXX         1    4    1    1
 -5  EYY         1    4    2    2
 -5  EZZ         1    4    3    3
 -5  EXY         1    4    1    2
 -5  EYZ         1    4    2    3
 -5  EZX         1    4    3    1
 -1         1 0.00000E+00 0.00000E+00 1.99992E-03 0.00000E+00 4.12546E-19 7.19066E-19
 -1         2 0.00000E+00 0.00000E+00 1.99992E-03 0.00000E+00-6.48839E-19-8.08690E-19
 -1         3 0.00000E+00 0.00000E+00 1.99992E-03 0.00000E+00-1.00914E-19-1.19850E-18
 -1         4 0.00000E+00 0.00000E+00 1.99992E-03 0.00000E+00-2.30863E-19 1.76134E-18
 -1         5 0.00000E+00 0.00000E+00 1.99992E-03 0.00000E+00 2.96159E-19-2.53224E-19
 -1         6 0.00000E+00 0.00000E+00 1.99992E-03 0.00000E+00-2.13856E-19 8.66809E-21
 -1         7 0.00000E+00 0.00000E+00 1.99992E-03 0.00000E+00 1.93228E-18 1.41309E-18
 -1         8 0.00000E+00 0.00000E+00 1.99992E-03 0.00000E+00-2.93494E-21-3.76507E-19
 -1         9 0.00000E+00 0.00000E+00 2.00010E-03 0.00000E+00-4.18795E-19-2.04593E-19
 -1        10 0.00000E+00 0.00000E+00 2.00010E-03 0.00000E+00 4.40404E-19 3.85247E-19
 -1        11 0.00000E+00 0.00000E+00 2.00010E-03 0.00000E+00 2.54597E-19 2.23763E-19
 -1        12 0.00000E+00 0.00000E+00 2.00010E-03 0.00000E+00 2.42075E-19 1.71784E-19
 -1        13 0.00000E+00 0.00000E+00 2.00010E-03 0.00000E+00-1.72104E-19-2.53389E-20
 -1        14 0.00000E+00 0.00000E+00 2.00010E-03 0.00000E+00 4.10158E-19 8.94127E-20
 -1        15 0.00000E+00 0.00000E+00 2.00010E-03 0.00000E+00-1.16356E-18 2.49269E-19
 -1        16 0.00000E+00 0.00000E+00 2.00010E-03 0.00000E+00 4.45153E-19 4.17991E-19
 -1        17 0.00000E+00 0.00000E+00 2.00010E-03 0.00000E+00-4.86716E-20 2.27507E-19
 -1        18 0.00000E+00 0.00000E+00 2.00010E-03 0.00000E+00 6.09490E-19-7.85158E-19
 -1        19 0.00000E+00 0.00000E+00 2.00010E-03 0.00000E+00 5.23083E-19-1.12112E-19
 -1        20 0.00000E+00 0.00000E+00 2.00010E-03 0.00000E+00 2.30452E-19 4.46960E-19
 -3
    1PSTEP                       874         175           1          
  100CL  275 360088.2829          20                     0  175           1
 -4  FORC        4    1
 -5  F1          1    2    1    0
 -5  F2          1    2    2    0
 -5  F3          1    2    3    0
 -5  ALL         1    2    0    0    1ALL
 -1         1-1.57896E+01-1.57896E+01 1.84208E+01
 -1         2-1.57896E+01 1.57896E+01 1.84208E+01
 -1         3-1.57896E+01 1.57896E+01-1.84208E+01
 -1         4-1.57896E+01-1.57896E+01-1.84208E+01
 -1         5 1.57896E+01-1.57896E+01 1.84208E+01
 -1         6 1.57896E+01 1.57896E+01 1.84208E+01
 -1         7 1.57896E+01 1.57896E+01-1.84208E+01
 -1         8 1.57896E+01-1.57896E+01-1.84208E+01
 -1         9 6.31584E+01-6.67209E-15-7.36831E+01
 -1        10 6.31584E+01-6.31584E+01 1.28786E-14
 -1        11 6.31584E+01 4.00755E-15 7.36831E+01
 -1        12 6.31584E+01 6.31584E+01 1.94844E-14
 -1        13 1.04727E-15 6.31584E+01-7.36831E+01
 -1        14 1.14877E-14-6.31584E+01-7.36831E+01
 -1        15 1.83495E-15-6.31584E+01 7.36831E+01
 -1        16-5.98776E-15 6.31584E+01 7.36831E+01
 -1        17-6.31584E+01 3.24603E-15-7.36831E+01
 -1        18-6.31584E+01-6.31584E+01 5.32907E-15
 -1        19-6.31584E+01 1.86099E-15 7.36831E+01
 -1        20-6.31584E+01 6.31584E+01 2.88658E-15
 -3
    1PSTEP                       875         175           1          
  100CL  275 360088.2829          20                     0  175           1
 -4  ERROR       1    1
 -5  STR(%)      1    1    0    0
 -1         1 1.31534E-14
 -1         2 1.31534E-14
 -1         3 1.31534E-14
 -1         4 1.31534E-14
 -1         5 1.31534E-14
 -1         6 1.31534E-14
 -1         7 1.31534E-14
 -1         8 1.31534E-14
 -1         9 1.31534E-14
 -1        10 1.31534E-14
 -1        11 1.31534E-14
 -1        12 1.31534E-14
 -1        13 1.31534E-14
 -1        14 1.31534E-14
 -1        15 1.31534E-14
 -1        16 1.31534E-14
 -1        17 1.31534E-14
 -1        18 1.31534E-14
 -1        19 1.31534E-14
 -1        20 1.31534E-14
 -3
    1PSTEP                       876         176           1          
  100CL  276 364246.1164          20                     0  176           1
 -4  DISP        4    1
 -5  D1          1    2    1    0
 -5  D2          1    2    2    0
 -5  D3          1    2    3    0
 -5  ALL         1    2    0    0    1ALL
 -1         1 0.00000E+00 0.00000E+00 0.00000E+00
 -1         2 0.00000E+00 0.00000E+00 0.00000E+00
 -1         3 0.00000E+00 0.00000E+00 2.00000E-03
 -1         4 0.00000E+00 0.00000E+00 2.00000E-03
 -1         5 0.00000E+00 0.00000E+00 0.00000E+00
 -1         6 0.00000E+00 0.00000E+00 0.00000E+00
 -1         7 0.00000E+00 0.00000E+00 2.00000E-03
 -1         8 0.00000E+00 0.00000E+00 2.00000E-03
 -1         9 0.00000E+00 0.00000E+00 0.00000E+00
 -1        10 0.00000E+00 0.00000E+00 1.00000E-03
 -1        11 0.00000E+00 0.00000E+00 2.00000E-03
 -1        12 0.00000E+00 0.00000E+00 1.00000E-03
 -1        13 0.00000E+00 0.00000E+00 0.00000E+00
 -1        14 0.00000E+00 0.00000E+00 0.00000E+00
 -1        15 0.00000E+00 0.00000E+00 2.00000E-03
 -1        16 0.00000E+00 0.00000E+00 2.00000E-03
 -1        17 0.00000E+00 0.00000E+00 0.00000E+00
 -1        18 0.00000E+00 0.00000E+00 1.00000E-03
 -1        19 0.00000E+00 0.00000E+00 2.00000E-03
 -1        20 0.00000E+00 0.00000E+00 1.00000E-03
 -3
    1PSTEP                       877         176           1          
  100CL  276 364246.1164          20                     0  176           1
 -4  STRESS      6    1
 -5  SXX         1    4    1    1
 -5  SYY         1    4    2    2
 -5  SZZ         1    4    3    3
 -5  SXY         1    4    1    2
 -5  SYZ         1    4    2    3
 -5  SZX         1    4    3    1
 -1         1 1.89641E+02 1.89641E+02 2.20695E+02 0.00000E+00 6.40584E-15 1.11654E-14
 -1         2 1.89641E+02 1.89641E+02 2.20695E+02 0.00000E+00-1.00749E-14-1.25570E-14
 -1         3 1.89641E+02 1.89641E+02 2.20695E+02 0.00000E+00-1.56695E-15-1.86098E-14
 -1         4 1.89641E+02 1.89641E+02 2.20695E+02 0.00000E+00-3.58474E-15 2.73493E-14
 -1         5 1.89641E+02 1.89641E+02 2.20695E+02 0.00000E+00 4.59863E-15-3.93196E-15
 -1         6 1.89641E+02 1.89641E+02 2.20695E+02 0.00000E+00-3.32067E-15 1.34595E-16
 -1         7 1.89641E+02 1.89641E+02 2.20695E+02 0.00000E+00 3.00037E-14 2.19418E-14
 -1         8 1.89641E+02 1.89641E+02 2.20695E+02 0.00000E+00-4.55725E-17-5.84624E-15
 -1         9 1.89658E+02 1.89658E+02 2.20714E+02 0.00000E+00-6.50288E-15-3.17683E-15
 -1        10 1.89658E+02 1.89658E+02 2.20714E+02 0.00000E+00 6.83842E-15 5.98195E-15
 -1        11 1.89658E+02 1.89658E+02 2.20714E+02 0.00000E+00 3.95327E-15 3.47450E-15
 -1        12 1.89658E+02 1.89658E+02 2.20714E+02 0.00000E+00 3.75883E-15 2.66740E-15
 -1        13 1.89658E+02 1.89658E+02 2.20714E+02 0.00000E+00-2.67236E-15-3.93453E-16
 -1        14 1.89658E+02 1.89658E+02 2.20714E+02 0.00000E+00 6.36877E-15 1.38836E-15
 -1        15 1.89658E+02 1.89658E+02 2.20714E+02 0.00000E+00-1.80674E-14 3.87054E-15
 -1        16 1.89658E+02 1.89658E+02 2.20714E+02 0.00000E+00 6.91215E-15 6.49039E-15
 -1        17 1.89658E+02 1.89658E+02 2.20714E+02 0.00000E+00-7.55752E-16 3.53263E-15
 -1        18 1.89658E+02 1.89658E+02 2.20714E+02 0.00000E+00 9.46391E-15-1.21916E-14
 -1        19 1.89658E+02 1.89658E+02 2.20714E+02 0.00000E+00 8.12222E-15-1.74082E-15
 -1        20 1.89658E+02 1.89658E+02 2.20714E+02 0.00000E+00 3.57836E-15 6.94021E-15
 -3
    1PSTEP                       878         176           1          
  100CL  276 364246.1164          20                     0  176           1
 -4  TOSTRAIN    6    1
 -5  EXX         1    4    1    1
 -5  EYY         1    4    2    2
 -5  EZZ         1    4    3    3
 -5  EXY         1    4    1    2
 -5  EYZ         1    4    2    3
 -5  EZX         1    4    3    1
 -1         1 0.00000E+00 0.00000E+00 1.99992E-03 0.00000E+00 4.12546E-19 7.19066E-19
 -1         2 0.00000E+00 0.00000E+00 1.99992E-03 0.00000E+00-6.48839E-19-8.08690E-19
 -1         3 0.00000E+00 0.00000E+00 1.99992E-03 0.00000E+00-1.00914E-19-1.19850E-18
 -1         4 0.00000E+00 0.00000E+00 1.99992E-03 0.00000E+00-2.30863E-19 1.76134E-18
 -1         5 0.00000E+00 0.00000E+00 1.99992E-03 0.00000E+00 2.96159E-19-2.53224E-19
 -1         6 0.00000E+00 0.00000E+00 1.99992E-03 0.00000E+00-2.13856E-19 8.66809E-21
 -1         7 0.00000E+00 0.00000E+00 1.99992E-03 0.00000E+00 1.93228E-18 1.41309E-18
 -1         8 0.00000E+00 0.00000E+00 1.99992E-03 0.00000E+00-2.93494E-21-3.76507E-19
 -1         9 0.00000E+00 0.00000E+00 2.00010E-03 0.00000E+00-4.18795E-19-2.04593E-19
 -1        10 0.00000E+00 0.00000E+00 2.00010E-03 0.00000E+00 4.40404E-19 3.85247E-19
 -1        11 0.00000E+00 0.00000E+00 2.00010E-03 0.00000E+00 2.54597E-19 2.23763E-19
 -1        12 0.00000E+00 0.00000E+00 2.00010E-03 0.00000E+00 2.42075E-19 1.71784E-19
 -1        13 0.00000E+00 0.00000E+00 2.00010E-03 0.00000E+00-1.72104E-19-2.53389E-20
 -1        14 0.00000E+00 0.00000E+00 2.00010E-03 0.00000E+00 4.10158E-19 8.94127E-20
 -1        15 0.00000E+00 0.00000E+00 2.00010E-03 0.00000E+00-1.16356E-18 2.49269E-19
 -1        16 0.00000E+00 0.00000E+00 2.00010E-03 0.00000E+00 4.45153E-19 4.17991E-19
 -1        17 0.00000E+00 0.00000E+00 2.00010E-03 0.00000E+00-4.86716E-20 2.27507E-19
 -1        18 0.00000E+00 0.00000E+00 2.00010E-03 0.00000E+00 6.09490E-19-7.85158E-19
 -1        19 0.00000E+00 0.00000E+00 2.00010E-03 0.00000E+00 5.23083E-19-1.12112E-19
 -1        20 0.00000E+00 0.00000E+00 2.00010E-03 0.00000E+00 2.30452E-19 4.46960E-19
 -3
    1PSTEP                       879         176           1          
  100CL  276 364246.1164          20                     0  176           1
 -4  FORC        4    1
 -5  F1          1    2    1    0
 -5  F2          1    2    2    0
 -5  F3          1    2    3    0
 -5  ALL         1    2    0    0    1ALL
 -1         1-1.58040E+01-1.58040E+01 1.83920E+01
 -1         2-1.58040E+01 1.58040E+01 1.83920E+01
 -1         3-1.58040E+01 1.58040E+01-1.83920E+01
 -1         4-1.58040E+01-1.58040E+01-1.83920E+01
 -1         5 1.58040E+01-1.58040E+01 1.83920E+01
 -1         6 1.58040E+01 1.58040E+01 1.83920E+01
 -1         7 1.58040E+01 1.58040E+01-1.83920E+01
 -1         8 1.58040E+01-1.58040E+01-1.83920E+01
 -1         9 6.32161E+01-6.22782E-15-7.35678E+01
 -1        10 6.32161E+01-6.32161E+01 5.99520E-15
 -1        11 6.32161E+01 2.23102E-15 7.35678E+01
 -1        12 6.32161E+01 6.32161E+01 1.57929E-14
 -1        13-3.11594E-15 6.32161E+01-7.35678E+01
 -1        14 9.26824E-15-6.32161E+01-7.35678E+01
 -1        15-8.82415E-15-6.32161E+01 7.35678E+01
 -1        16-3.10130E-15 6.32161E+01 7.35678E+01
 -1        17-6.32161E+01 5.02378E-15-7.35678E+01
 -1        18-6.32161E+01-6.32161E+01 0.00000E+00
 -1        19-6.32161E+01 5.41231E-15 7.35678E+01
 -1        20-6.32161E+01 6.32161E+01 4.66294E-15
 -3
    1PSTEP                       880         176           1          
  100CL  276 364246.1164          20                     0  176           1
 -4  ERROR       1    1
 -5  STR(%)      1    1    0    0
 -1         1 8.76069E-14
 -1         2 8.76069E-14
 -1         3 8.76069E-14
 -1         4 8.76069E-14
 -1         5 8.76069E-14
 -1         6 8.76069E-14
 -1         7 8.76069E-14
 -1         8 8.76069E-14
 -1         9 8.76069E-14
 -1        10 8.76069E-14
 -1        11 8.76069E-14
 -1        12 8.76069E-14
 -1        13 8.76069E-14
 -1        14 8.76069E-14
 -1        15 8.76069E-14
 -1        16 8.76069E-14
 -1        17 8.76069E-14
 -1        18 8.76069E-14
 -1        19 8.76069E-14
 -1        20 8.76069E-14
 -3
    1PSTEP                       881         177           1          
  100CL  277 367030.6785          20                     0  177           1
 -4  DISP        4    1
 -5  D1          1    2    1    0
 -5  D2          1    2    2    0
 -5  D3          1    2    3    0
 -5  ALL         1    2    0    0    1ALL
 -1         1 0.00000E+00 0.00000E+00 0.00000E+00
 -1         2 0.00000E+00 0.00000E+00 0.00000E+00
 -1         3 0.00000E+00 0.00000E+00 2.00000E-03
 -1         4 0.00000E+00 0.00000E+00 2.00000E-03
 -1         5 0.00000E+00 0.00000E+00 0.00000E+00
 -1         6 0.00000E+00 0.00000E+00 0.00000E+00
 -1         7 0.00000E+00 0.00000E+00 2.00000E-03
 -1         8 0.00000E+00 0.00000E+00 2.00000E-03
 -1         9 0.00000E+00 0.00000E+00 0.00000E+00
 -1        10 0.00000E+00 0.00000E+00 1.00000E-03
 -1        11 0.00000E+00 0.00000E+00 2.00000E-03
 -1        12 0.00000E+00 0.00000E+00 1.00000E-03
 -1        13 0.00000E+00 0.00000E+00 0.00000E+00
 -1        14 0.00000E+00 0.00000E+00 0.00000E+00
 -1        15 0.00000E+00 0.00000E+00 2.00000E-03
 -1        16 0.00000E+00 0.00000E+00 2.00000E-03
 -1        17 0.00000E+00 0.00000E+00 0.00000E+00
 -1        18 0.00000E+00 0.00000E+00 1.00000E-03
 -1        19 0.00000E+00 0.00000E+00 2.00000E-03
 -1        20 0.00000E+00 0.00000E+00 1.00000E-03
 -3
    1PSTEP                       882         177           1          
  100CL  277 367030.6785          20                     0  177           1
 -4  STRESS      6    1
 -5  SXX         1    4    1    1
 -5  SYY         1    4    2    2
 -5  SZZ         1    4    3    3
 -5  SXY         1    4    1    2
 -5  SYZ         1    4    2    3
 -5  SZX         1    4    3    1
 -1         1 1.89755E+02 1.89755E+02 2.20465E+02 0.00000E+00 6.33494E-15 1.10418E-14
 -1         2 1.89755E+02 1.89755E+02 2.20465E+02 0.00000E+00-9.96339E-15-1.24180E-14
 -1         3 1.89755E+02 1.89755E+02 2.20465E+02 0.00000E+00-1.54960E-15-1.84039E-14
 -1         4 1.89755E+02 1.89755E+02 2.20465E+02 0.00000E+00-3.54506E-15 2.70466E-14
 -1         5 1.89755E+02 1.89755E+02 2.20465E+02 0.00000E+00 4.54773E-15-3.88844E-15
 -1         6 1.89755E+02 1.89755E+02 2.20465E+02 0.00000E+00-3.28392E-15 1.33105E-16
 -1         7 1.89755E+02 1.89755E+02 2.20465E+02 0.00000E+00 2.96716E-14 2.16989E-14
 -1         8 1.89755E+02 1.89755E+02 2.20465E+02 0.00000E+00-4.50680E-17-5.78153E-15
 -1         9 1.89772E+02 1.89772E+02 2.20485E+02 0.00000E+00-6.43090E-15-3.14167E-15
 -1        10 1.89772E+02 1.89772E+02 2.20485E+02 0.00000E+00 6.76273E-15 5.91574E-15
 -1        11 1.89772E+02 1.89772E+02 2.20485E+02 0.00000E+00 3.90951E-15 3.43605E-15
 -1        12 1.89772E+02 1.89772E+02 2.20485E+02 0.00000E+00 3.71723E-15 2.63787E-15
 -1        13 1.89772E+02 1.89772E+02 2.20485E+02 0.00000E+00-2.64278E-15-3.89098E-16
 -1        14 1.89772E+02 1.89772E+02 2.20485E+02 0.00000E+00 6.29828E-15 1.37300E-15
 -1        15 1.89772E+02 1.89772E+02 2.20485E+02 0.00000E+00-1.78674E-14 3.82770E-15
 -1        16 1.89772E+02 1.89772E+02 2.20485E+02 0.00000E+00 6.83564E-15 6.41855E-15
 -1        17 1.89772E+02 1.89772E+02 2.20485E+02 0.00000E+00-7.47387E-16 3.49353E-15
 -1        18 1.89772E+02 1.89772E+02 2.20485E+02 0.00000E+00 9.35916E-15-1.20567E-14
 -1        19 1.89772E+02 1.89772E+02 2.20485E+02 0.00000E+00 8.03232E-15-1.72155E-15
 -1        20 1.89772E+02 1.89772E+02 2.20485E+02 0.00000E+00 3.53875E-15 6.86339E-15
 -3
    1PSTEP                       883         177           1          
  100CL  277 367030.6785          20                     0  177           1
 -4  TOSTRAIN    6    1
 -5  EXX         1    4    1    1
 -5  EYY         1    4    2    2
 -5  EZZ         1    4    3    3
 -5  EXY         1    4    1    2
 -5  EYZ         1    4    2    3
 -5  EZX         1    4    3    1
 -1         1 0.00000E+00 0.00000E+00 1.99992E-03 0.00000E+00 4.12546E-19 7.19066E-19
 -1         2 0.00000E+00 0.00000E+00 1.99992E-03 0.00000E+00-6.48839E-19-8.08690E-19
 -1         3 0.00000E+00 0.00000E+00 1.99992E-03 0.00000E+00-1.00914E-19-1.19850E-18
 -1         4 0.00000E+00 0.00000E+00 1.99992E-03 0.00000E+00-2.30863E-19 1.76134E-18
 -1         5 0.00000E+00 0.00000E+00 1.99992E-03 0.00000E+00 2.96159E-19-2.53224E-19
 -1         6 0.00000E+00 0.00000E+00 1.99992E-03 0.00000E+00-2.13856E-19 8.66809E-21
 -1         7 0.00000E+00 0.00000E+00 1.99992E-03 0.00000E+00 1.93228E-18 1.41309E-18
 -1         8 0.00000E+00 0.00000E+00 1.99992E-03 0.00000E+00-2.93494E-21-3.76507E-19
 -1         9 0.00000E+00 0.00000E+00 2.00010E-03 0.00000E+00-4.18795E-19-2.04593E-19
 -1        10 0.00000E+00 0.00000E+00 2.00010E-03 0.00000E+00 4.40404E-19 3.85247E-19
 -1        11 0.00000E+00 0.00000E+00 2.00010E-03 0.00000E+00 2.54597E-19 2.23763E-19
 -1        12 0.00000E+00 0.00000E+00 2.00010E-03 0.00000E+00 2.42075E-19 1.71784E-19
 -1        13 0.00000E+00 0.00000E+00 2.00010E-03 0.00000E+00-1.72104E-19-2.53389E-20
 -1        14 0.00000E+00 0.00000E+00 2.00010E-03 0.00000E+00 4.10158E-19 8.94127E-20
 -1        15 0.00000E+00 0.00000E+00 2.00010E-03 0.00000E+00-1.16356E-18 2.49269E-19
 -1        16 0.00000E+00 0.00000E+00 2.00010E-03 0.00000E+00 4.45153E-19 4.17991E-19
 -1        17 0.00000E+00 0.00000E+00 2.00010E-03 0.00000E+00-4.86716E-20 2.27507E-19
 -1        18 0.00000E+00 0.00000E+00 2.00010E-03 0.00000E+00 6.09490E-19-7.85158E-19
 -1        19 0.00000E+00 0.00000E+00 2.00010E-03 0.00000E+00 5.23083E-19-1.12112E-19
 -1        20 0.00000E+00 0.00000E+00 2.00010E-03 0.00000E+00 2.30452E-19 4.46960E-19
 -3
    1PSTEP                       884         177           1          
  100CL  277 367030.6785          20                     0  177           1
 -4  FORC        4    1
 -5  F1          1    2    1    0
 -5  F2          1    2    2    0
 -5  F3          1    2    3    0
 -5  ALL         1    2    0    0    1ALL
 -1         1-1.58136E+01-1.58136E+01 1.83729E+01
 -1         2-1.58136E+01 1.58136E+01 1.83729E+01
 -1         3-1.58136E+01 1.58136E+01-1.83729E+01
 -1         4-1.58136E+01-1.58136E+01-1.83729E+01
 -1         5 1.58136E+01-1.58136E+01 1.83729E+01
 -1         6 1.58136E+01 1.58136E+01 1.83729E+01
 -1         7 1.58136E+01 1.58136E+01-1.83729E+01
 -1         8 1.58136E+01-1.58136E+01-1.83729E+01
 -1         9 6.32543E+01-6.42199E-15-7.34914E+01
 -1        10 6.32543E+01-6.32543E+01 9.54792E-15
 -1        11 6.32543E+01 5.56157E-15 7.34914E+01
 -1        12 6.32543E+01 6.32543E+01 1.72085E-14
 -1        13-4.83671E-15 6.32543E+01-7.34914E+01
 -1        14 1.28216E-14-6.32543E+01-7.34914E+01
 -1        15-1.41539E-14-6.32543E+01 7.34914E+01
 -1        16-9.76272E-15 6.32543E+01 7.34914E+01
 -1        17-6.32543E+01 3.24835E-15-7.34914E+01
 -1        18-6.32543E+01-6.32543E+01 7.10543E-15
 -1        19-6.32543E+01 5.41139E-15 7.34914E+01
 -1        20-6.32543E+01 6.32543E+01 3.77476E-15
 -3
    1PSTEP                       885         177           1          
  100CL  277 367030.6785          20                     0  177           1
 -4  ERROR       1    1
 -5  STR(%)      1    1    0    0
 -1         1 1.27261E-13
 -1         2 1.27261E-13
 -1         3 1.27261E-13
 -1         4 1.27261E-13
 -1         5 1.27261E-13
 -1         6 1.27261E-13
 -1         7 1.27261E-13
 -1         8 1.27261E-13
 -1         9 1.27261E-13
 -1        10 1.27261E-13
 -1        11 1.27261E-13
 -1        12 1.27261E-13
 -1        13 1.27261E-13
 -1        14 1.27261E-13
 -1        15 1.27261E-13
 -1        16 1.27261E-13
 -1        17 1.27261E-13
 -1        18 1.27261E-13
 -1        19 1.27261E-13
 -1        20 1.27261E-13
 -3
    1PSTEP                       886         178           1          
  100CL  278 369815.2405          20                     0  178           1
 -4  DISP        4    1
 -5  D1          1    2    1    0
 -5  D2          1    2    2    0
 -5  D3          1    2    3    0
 -5  ALL         1    2    0    0    1ALL
 -1         1 0.00000E+00 0.00000E+00 0.00000E+00
 -1         2 0.00000E+00 0.00000E+00 0.00000E+00
 -1         3 0.00000E+00 0.00000E+00 2.00000E-03
 -1         4 0.00000E+00 0.00000E+00 2.00000E-03
 -1         5 0.00000E+00 0.00000E+00 0.00000E+00
 -1         6 0.00000E+00 0.00000E+00 0.00000E+00
 -1         7 0.00000E+00 0.00000E+00 2.00000E-03
 -1         8 0.00000E+00 0.00000E+00 2.00000E-03
 -1         9 0.00000E+00 0.00000E+00 0.00000E+00
 -1        10 0.00000E+00 0.00000E+00 1.00000E-03
 -1        11 0.00000E+00 0.00000E+00 2.00000E-03
 -1        12 0.00000E+00 0.00000E+00 1.00000E-03
 -1        13 0.00000E+00 0.00000E+00 0.00000E+00
 -1        14 0.00000E+00 0.00000E+00 0.00000E+00
 -1        15 0.00000E+00 0.00000E+00 2.00000E-03
 -1        16 0.00000E+00 0.00000E+00 2.00000E-03
 -1        17 0.00000E+00 0.00000E+00 0.00000E+00
 -1        18 0.00000E+00 0.00000E+00 1.00000E-03
 -1        19 0.00000E+00 0.00000E+00 2.00000E-03
 -1        20 0.00000E+00 0.00000E+00 1.00000E-03
 -3
    1PSTEP                       887         178           1          
  100CL  278 369815.2405          20                     0  178           1
 -4  STRESS      6    1
 -5  SXX         1    4    1    1
 -5  SYY         1    4    2    2
 -5  SZZ         1    4    3    3
 -5  SXY         1    4    1    2
 -5  SYZ         1    4    2    3
 -5  SZX         1    4    3    1
 -1         1 1.89869E+02 1.89869E+02 2.20239E+02 0.00000E+00 6.26482E-15 1.09196E-14
 -1         2 1.89869E+02 1.89869E+02 2.20239E+02 0.00000E+00-9.85311E-15-1.22806E-14
 -1         3 1.89869E+02 1.89869E+02 2.20239E+02 0.00000E+00-1.53245E-15-1.82002E-14
 -1         4 1.89869E+02 1.89869E+02 2.20239E+02 0.00000E+00-3.50583E-15 2.67472E-14
 -1         5 1.89869E+02 1.89869E+02 2.20239E+02 0.00000E+00 4.49739E-15-3.84540E-15
 -1         6 1.89869E+02 1.89869E+02 2.20239E+02 0.00000E+00-3.24757E-15 1.31632E-16
 -1         7 1.89869E+02 1.89869E+02 2.20239E+02 0.00000E+00 2.93432E-14 2.14588E-14
 -1         8 1.89869E+02 1.89869E+02 2.20239E+02 0.00000E+00-4.45692E-17-5.71754E-15
 -1         9 1.89886E+02 1.89886E+02 2.20259E+02 0.00000E+00-6.35972E-15-3.10690E-15
 -1        10 1.89886E+02 1.89886E+02 2.20259E+02 0.00000E+00 6.68787E-15 5.85027E-15
 -1        11 1.89886E+02 1.89886E+02 2.20259E+02 0.00000E+00 3.86624E-15 3.39802E-15
 -1        12 1.89886E+02 1.89886E+02 2.20259E+02 0.00000E+00 3.67609E-15 2.60868E-15
 -1        13 1.89886E+02 1.89886E+02 2.20259E+02 0.00000E+00-2.61353E-15-3.84791E-16
 -1        14 1.89886E+02 1.89886E+02 2.20259E+02 0.00000E+00 6.22857E-15 1.35780E-15
 -1        15 1.89886E+02 1.89886E+02 2.20259E+02 0.00000E+00-1.76696E-14 3.78534E-15
 -1        16 1.89886E+02 1.89886E+02 2.20259E+02 0.00000E+00 6.75998E-15 6.34751E-15
 -1        17 1.89886E+02 1.89886E+02 2.20259E+02 0.00000E+00-7.39115E-16 3.45487E-15
 -1        18 1.89886E+02 1.89886E+02 2.20259E+02 0.00000E+00 9.25557E-15-1.19232E-14
 -1        19 1.89886E+02 1.89886E+02 2.20259E+02 0.00000E+00 7.94341E-15-1.70250E-15
 -1        20 1.89886E+02 1.89886E+02 2.20259E+02 0.00000E+00 3.49958E-15 6.78742E-15
 -3
    1PSTEP                       888         178           1          
  100CL  278 369815.2405          20                     0  178           1
 -4  TOSTRAIN    6    1
 -5  EXX         1    4    1    1
 -5  EYY         1    4    2    2
 -5  EZZ         1    4    3    3
 -5  EXY         1    4    1    2
 -5  EYZ         1    4    2    3
 -5  EZX         1    4    3    1
 -1         1 0.00000E+00 0.00000E+00 1.99992E-03 0.00000E+00 4.12546E-19 7.19066E-19
 -1         2 0.00000E+00 0.00000E+00 1.99992E-03 0.00000E+00-6.48839E-19-8.08690E-19
 -1         3 0.00000E+00 0.00000E+00 1.99992E-03 0.00000E+00-1.00914E-19-1.19850E-18
 -1         4 0.00000E+00 0.00000E+00 1.99992E-03 0.00000E+00-2.30863E-19 1.76134E-18
 -1         5 0.00000E+00 0.00000E+00 1.99992E-03 0.00000E+00 2.96159E-19-2.53224E-19
 -1         6 0.00000E+00 0.00000E+00 1.99992E-03 0.00000E+00-2.13856E-19 8.66809E-21
 -1         7 0.00000E+00 0.00000E+00 1.99992E-03 0.00000E+00 1.93228E-18 1.41309E-18
 -1         8 0.00000E+00 0.00000E+00 1.99992E-03 0.00000E+00-2.93494E-21-3.76507E-19
 -1         9 0.00000E+00 0.00000E+00 2.00010E-03 0.00000E+00-4.18795E-19-2.04593E-19
 -1        10 0.00000E+00 0.00000E+00 2.00010E-03 0.00000E+00 4.40404E-19 3.85247E-19
 -1        11 0.00000E+00 0.00000E+00 2.00010E-03 0.00000E+00 2.54597E-19 2.23763E-19
 -1        12 0.00000E+00 0.00000E+00 2.00010E-03 0.00000E+00 2.42075E-19 1.71784E-19
 -1        13 0.00000E+00 0.00000E+00 2.00010E-03 0.00000E+00-1.72104E-19-2.53389E-20
 -1        14 0.00000E+00 0.00000E+00 2.00010E-03 0.00000E+00 4.10158E-19 8.94127E-20
 -1        15 0.00000E+00 0.00000E+00 2.00010E-03 0.00000E+00-1.16356E-18 2.49269E-19
 -1        16 0.00000E+00 0.00000E+00 2.00010E-03 0.00000E+00 4.45153E-19 4.17991E-19
 -1        17 0.00000E+00 0.00000E+00 2.00010E-03 0.00000E+00-4.86716E-20 2.27507E-19
 -1        18 0.00000E+00 0.00000E+00 2.00010E-03 0.00000E+00 6.09490E-19-7.85158E-19
 -1        19 0.00000E+00 0.00000E+00 2.00010E-03 0.00000E+00 5.23083E-19-1.12112E-19
 -1        20 0.00000E+00 0.00000E+00 2.00010E-03 0.00000E+00 2.30452E-19 4.46960E-19
 -3
    1PSTEP                       889         178           1          
  100CL  278 369815.2405          20                     0  178           1
 -4  FORC        4    1
 -5  F1          1    2    1    0
 -5  F2          1    2    2    0
 -5  F3          1    2    3    0
 -5  ALL         1    2    0    0    1ALL
 -1         1-1.58230E+01-1.58230E+01 1.83540E+01
 -1         2-1.58230E+01 1.58230E+01 1.83540E+01
 -1         3-1.58230E+01 1.58230E+01-1.83540E+01
 -1         4-1.58230E+01-1.58230E+01-1.83540E+01
 -1         5 1.58230E+01-1.58230E+01 1.83540E+01
 -1         6 1.58230E+01 1.58230E+01 1.83540E+01
 -1         7 1.58230E+01 1.58230E+01-1.83540E+01
 -1         8 1.58230E+01-1.58230E+01-1.83540E+01
 -1         9 6.32921E+01-8.44804E-15-7.34159E+01
 -1        10 6.32921E+01-6.32921E+01 2.66454E-15
 -1        11 6.32921E+01 6.00554E-15 7.34159E+01
 -1        12 6.32921E+01 6.32921E+01 1.04083E-14
 -1        13-5.05867E-15 6.32921E+01-7.34159E+01
 -1        14 1.92615E-14-6.32921E+01-7.34159E+01
 -1        15-1.06018E-14-6.32921E+01 7.34159E+01
 -1        16-8.43054E-15 6.32921E+01 7.34159E+01
 -1        17-6.32921E+01 7.02402E-15-7.34159E+01
 -1        18-6.32921E+01-6.32921E+01 1.77636E-15
 -1        19-6.32921E+01 5.41048E-15 7.34159E+01
 -1        20-6.32921E+01 6.32921E+01 1.55431E-15
 -3
    1PSTEP                       890         178           1          
  100CL  278 369815.2405          20                     0  178           1
 -4  ERROR       1    1
 -5  STR(%)      1    1    0    0
 -1         1 1.91418E-14
 -1         2 1.91418E-14
 -1         3 1.91418E-14
 -1         4 1.91418E-14
 -1         5 1.91418E-14
 -1         6 1.91418E-14
 -1         7 1.91418E-14
 -1         8 1.91418E-14
 -1         9 1.91418E-14
 -1        10 1.91418E-14
 -1        11 1.91418E-14
 -1        12 1.91418E-14
 -1        13 1.91418E-14
 -1        14 1.91418E-14
 -1        15 1.91418E-14
 -1        16 1.91418E-14
 -1        17 1.91418E-14
 -1        18 1.91418E-14
 -1        19 1.91418E-14
 -1        20 1.91418E-14
 -3
    1PSTEP                       891         179           1          
  100CL  279 373992.0836          20                     0  179           1
 -4  DISP        4    1
 -5  D1          1    2    1    0
 -5  D2          1    2    2    0
 -5  D3          1    2    3    0
 -5  ALL         1    2    0    0    1ALL
 -1         1 0.00000E+00 0.00000E+00 0.00000E+00
 -1         2 0.00000E+00 0.00000E+00 0.00000E+00
 -1         3 0.00000E+00 0.00000E+00 2.00000E-03
 -1         4 0.00000E+00 0.00000E+00 2.00000E-03
 -1         5 0.00000E+00 0.00000E+00 0.00000E+00
 -1         6 0.00000E+00 0.00000E+00 0.00000E+00
 -1         7 0.00000E+00 0.00000E+00 2.00000E-03
 -1         8 0.00000E+00 0.00000E+00 2.00000E-03
 -1         9 0.00000E+00 0.00000E+00 0.00000E+00
 -1        10 0.00000E+00 0.00000E+00 1.00000E-03
 -1        11 0.00000E+00 0.00000E+00 2.00000E-03
 -1        12 0.00000E+00 0.00000E+00 1.00000E-03
 -1        13 0.00000E+00 0.00000E+00 0.00000E+00
 -1        14 0.00000E+00 0.00000E+00 0.00000E+00
 -1        15 0.00000E+00 0.00000E+00 2.00000E-03
 -1        16 0.00000E+00 0.00000E+00 2.00000E-03
 -1        17 0.00000E+00 0.00000E+00 0.00000E+00
 -1        18 0.00000E+00 0.00000E+00 1.00000E-03
 -1        19 0.00000E+00 0.00000E+00 2.00000E-03
 -1        20 0.00000E+00 0.00000E+00 1.00000E-03
 -3
    1PSTEP                       892         179           1          
  100CL  279 373992.0836          20                     0  179           1
 -4  STRESS      6    1
 -5  SXX         1    4    1    1
 -5  SYY         1    4    2    2
 -5  SZZ         1    4    3    3
 -5  SXY         1    4    1    2
 -5  SYZ         1    4    2    3
 -5  SZX         1    4    3    1
 -1         1 1.90036E+02 1.90036E+02 2.19905E+02 0.00000E+00 6.16138E-15 1.07393E-14
 -1         2 1.90036E+02 1.90036E+02 2.19905E+02 0.00000E+00-9.69042E-15-1.20778E-14
 -1         3 1.90036E+02 1.90036E+02 2.19905E+02 0.00000E+00-1.50715E-15-1.78996E-14
 -1         4 1.90036E+02 1.90036E+02 2.19905E+02 0.00000E+00-3.44794E-15 2.63056E-14
 -1         5 1.90036E+02 1.90036E+02 2.19905E+02 0.00000E+00 4.42313E-15-3.78191E-15
 -1         6 1.90036E+02 1.90036E+02 2.19905E+02 0.00000E+00-3.19395E-15 1.29458E-16
 -1         7 1.90036E+02 1.90036E+02 2.19905E+02 0.00000E+00 2.88587E-14 2.11045E-14
 -1         8 1.90036E+02 1.90036E+02 2.19905E+02 0.00000E+00-4.38333E-17-5.62314E-15
 -1         9 1.90053E+02 1.90053E+02 2.19924E+02 0.00000E+00-6.25471E-15-3.05560E-15
 -1        10 1.90053E+02 1.90053E+02 2.19924E+02 0.00000E+00 6.57745E-15 5.75367E-15
 -1        11 1.90053E+02 1.90053E+02 2.19924E+02 0.00000E+00 3.80240E-15 3.34191E-15
 -1        12 1.90053E+02 1.90053E+02 2.19924E+02 0.00000E+00 3.61539E-15 2.56560E-15
 -1        13 1.90053E+02 1.90053E+02 2.19924E+02 0.00000E+00-2.57038E-15-3.78438E-16
 -1        14 1.90053E+02 1.90053E+02 2.19924E+02 0.00000E+00 6.12573E-15 1.33538E-15
 -1        15 1.90053E+02 1.90053E+02 2.19924E+02 0.00000E+00-1.73779E-14 3.72284E-15
 -1        16 1.90053E+02 1.90053E+02 2.19924E+02 0.00000E+00 6.64837E-15 6.24270E-15
 -1        17 1.90053E+02 1.90053E+02 2.19924E+02 0.00000E+00-7.26911E-16 3.39782E-15
 -1        18 1.90053E+02 1.90053E+02 2.19924E+02 0.00000E+00 9.10275E-15-1.17264E-14
 -1        19 1.90053E+02 1.90053E+02 2.19924E+02 0.00000E+00 7.81226E-15-1.67439E-15
 -1        20 1.90053E+02 1.90053E+02 2.19924E+02 0.00000E+00 3.44180E-15 6.67535E-15
 -3
    1PSTEP                       893         179           1          
  100CL  279 373992.0836          20                     0  179           1
 -4  TOSTRAIN    6    1
 -5  EXX         1    4    1    1
 -5  EYY         1    4    2    2
 -5  EZZ         1    4    3    3
 -5  EXY         1    4    1    2
 -5  EYZ         1    4    2    3
 -5  EZX         1    4    3    1
 -1         1 0.00000E+00 0.00000E+00 1.99992E-03 0.00000E+00 4.12546E-19 7.19066E-19
 -1         2 0.00000E+00 0.00000E+00 1.99992E-03 0.00000E+00-6.48839E-19-8.08690E-19
 -1         3 0.00000E+00 0.00000E+00 1.99992E-03 0.00000E+00-1.00914E-19-1.19850E-18
 -1         4 0.00000E+00 0.00000E+00 1.99992E-03 0.00000E+00-2.30863E-19 1.76134E-18
 -1         5 0.00000E+00 0.00000E+00 1.99992E-03 0.00000E+00 2.96159E-19-2.53224E-19
 -1         6 0.00000E+00 0.00000E+00 1.99992E-03 0.00000E+00-2.13856E-19 8.66809E-21
 -1         7 0.00000E+00 0.00000E+00 1.99992E-03 0.00000E+00 1.93228E-18 1.41309E-18
 -1         8 0.00000E+00 0.00000E+00 1.99992E-03 0.00000E+00-2.93494E-21-3.76507E-19
 -1         9 0.00000E+00 0.00000E+00 2.00010E-03 0.00000E+00-4.18795E-19-2.04593E-19
 -1        10 0.00000E+00 0.00000E+00 2.00010E-03 0.00000E+00 4.40404E-19 3.85247E-19
 -1        11 0.00000E+00 0.00000E+00 2.00010E-03 0.00000E+00 2.54597E-19 2.23763E-19
 -1        12 0.00000E+00 0.00000E+00 2.00010E-03 0.00000E+00 2.42075E-19 1.71784E-19
 -1        13 0.00000E+00 0.00000E+00 2.00010E-03 0.00000E+00-1.72104E-19-2.53389E-20
 -1        14 0.00000E+00 0.00000E+00 2.00010E-03 0.00000E+00 4.10158E-19 8.94127E-20
 -1        15 0.00000E+00 0.00000E+00 2.00010E-03 0.00000E+00-1.16356E-18 2.49269E-19
 -1        16 0.00000E+00 0.00000E+00 2.00010E-03 0.00000E+00 4.45153E-19 4.17991E-19
 -1        17 0.00000E+00 0.00000E+00 2.00010E-03 0.00000E+00-4.86716E-20 2.27507E-19
 -1        18 0.00000E+00 0.00000E+00 2.00010E-03 0.00000E+00 6.09490E-19-7.85158E-19
 -1        19 0.00000E+00 0.00000E+00 2.00010E-03 0.00000E+00 5.23083E-19-1.12112E-19
 -1        20 0.00000E+00 0.00000E+00 2.00010E-03 0.00000E+00 2.30452E-19 4.46960E-19
 -3
    1PSTEP                       894         179           1          
  100CL  279 373992.0836          20                     0  179           1
 -4  FORC        4    1
 -5  F1          1    2    1    0
 -5  F2          1    2    2    0
 -5  F3          1    2    3    0
 -5  ALL         1    2    0    0    1ALL
 -1         1-1.58369E+01-1.58369E+01 1.83261E+01
 -1         2-1.58369E+01 1.58369E+01 1.83261E+01
 -1         3-1.58369E+01 1.58369E+01-1.83261E+01
 -1         4-1.58369E+01-1.58369E+01-1.83261E+01
 -1         5 1.58369E+01-1.58369E+01 1.83261E+01
 -1         6 1.58369E+01 1.58369E+01 1.83261E+01
 -1         7 1.58369E+01 1.58369E+01-1.83261E+01
 -1         8 1.58369E+01-1.58369E+01-1.83261E+01
 -1         9 6.33478E+01-6.19966E-15-7.33045E+01
 -1        10 6.33478E+01-6.33478E+01 5.77316E-15
 -1        11 6.33478E+01 5.56129E-15 7.33045E+01
 -1        12 6.33478E+01 6.33478E+01 1.66256E-14
 -1        13-7.91738E-15 6.33478E+01-7.33045E+01
 -1        14 6.82795E-15-6.33478E+01-7.33045E+01
 -1        15 5.38450E-15-6.33478E+01 7.33045E+01
 -1        16 8.95219E-16 6.33478E+01 7.33045E+01
 -1        17-6.33478E+01 3.25060E-15-7.33045E+01
 -1        18-6.33478E+01-6.33478E+01 1.77636E-15
 -1        19-6.33478E+01 5.40914E-15 7.33045E+01
 -1        20-6.33478E+01 6.33478E+01 9.10383E-15
 -3
    1PSTEP                       895         179           1          
  100CL  279 373992.0836          20                     0  179           1
 -4  ERROR       1    1
 -5  STR(%)      1    1    0    0
 -1         1 7.93278E-14
 -1         2 7.93278E-14
 -1         3 7.93278E-14
 -1         4 7.93278E-14
 -1         5 7.93278E-14
 -1         6 7.93278E-14
 -1         7 7.93278E-14
 -1         8 7.93278E-14
 -1         9 7.93278E-14
 -1        10 7.93278E-14
 -1        11 7.93278E-14
 -1        12 7.93278E-14
 -1        13 7.93278E-14
 -1        14 7.93278E-14
 -1        15 7.93278E-14
 -1        16 7.93278E-14
 -1        17 7.93278E-14
 -1        18 7.93278E-14
 -1        19 7.93278E-14
 -1        20 7.93278E-14
 -3
    1PSTEP                       896         180           1          
  100CL  280 376874.2727          20                     0  180           1
 -4  DISP        4    1
 -5  D1          1    2    1    0
 -5  D2          1    2    2    0
 -5  D3          1    2    3    0
 -5  ALL         1    2    0    0    1ALL
 -1         1 0.00000E+00 0.00000E+00 0.00000E+00
 -1         2 0.00000E+00 0.00000E+00 0.00000E+00
 -1         3 0.00000E+00 0.00000E+00 2.00000E-03
 -1         4 0.00000E+00 0.00000E+00 2.00000E-03
 -1         5 0.00000E+00 0.00000E+00 0.00000E+00
 -1         6 0.00000E+00 0.00000E+00 0.00000E+00
 -1         7 0.00000E+00 0.00000E+00 2.00000E-03
 -1         8 0.00000E+00 0.00000E+00 2.00000E-03
 -1         9 0.00000E+00 0.00000E+00 0.00000E+00
 -1        10 0.00000E+00 0.00000E+00 1.00000E-03
 -1        11 0.00000E+00 0.00000E+00 2.00000E-03
 -1        12 0.00000E+00 0.00000E+00 1.00000E-03
 -1        13 0.00000E+00 0.00000E+00 0.00000E+00
 -1        14 0.00000E+00 0.00000E+00 0.00000E+00
 -1        15 0.00000E+00 0.00000E+00 2.00000E-03
 -1        16 0.00000E+00 0.00000E+00 2.00000E-03
 -1        17 0.00000E+00 0.00000E+00 0.00000E+00
 -1        18 0.00000E+00 0.00000E+00 1.00000E-03
 -1        19 0.00000E+00 0.00000E+00 2.00000E-03
 -1        20 0.00000E+00 0.00000E+00 1.00000E-03
 -3
    1PSTEP                       897         180           1          
  100CL  280 376874.2727          20                     0  180           1
 -4  STRESS      6    1
 -5  SXX         1    4    1    1
 -5  SYY         1    4    2    2
 -5  SZZ         1    4    3    3
 -5  SXY         1    4    1    2
 -5  SYZ         1    4    2    3
 -5  SZX         1    4    3    1
 -1         1 1.90150E+02 1.90150E+02 2.19677E+02 0.00000E+00 6.09082E-15 1.06163E-14
 -1         2 1.90150E+02 1.90150E+02 2.19677E+02 0.00000E+00-9.57945E-15-1.19395E-14
 -1         3 1.90150E+02 1.90150E+02 2.19677E+02 0.00000E+00-1.48989E-15-1.76947E-14
 -1         4 1.90150E+02 1.90150E+02 2.19677E+02 0.00000E+00-3.40845E-15 2.60044E-14
 -1         5 1.90150E+02 1.90150E+02 2.19677E+02 0.00000E+00 4.37248E-15-3.73860E-15
 -1         6 1.90150E+02 1.90150E+02 2.19677E+02 0.00000E+00-3.15737E-15 1.27976E-16
 -1         7 1.90150E+02 1.90150E+02 2.19677E+02 0.00000E+00 2.85282E-14 2.08628E-14
 -1         8 1.90150E+02 1.90150E+02 2.19677E+02 0.00000E+00-4.33313E-17-5.55874E-15
 -1         9 1.90167E+02 1.90167E+02 2.19696E+02 0.00000E+00-6.18308E-15-3.02061E-15
 -1        10 1.90167E+02 1.90167E+02 2.19696E+02 0.00000E+00 6.50212E-15 5.68778E-15
 -1        11 1.90167E+02 1.90167E+02 2.19696E+02 0.00000E+00 3.75886E-15 3.30364E-15
 -1        12 1.90167E+02 1.90167E+02 2.19696E+02 0.00000E+00 3.57399E-15 2.53622E-15
 -1        13 1.90167E+02 1.90167E+02 2.19696E+02 0.00000E+00-2.54094E-15-3.74104E-16
 -1        14 1.90167E+02 1.90167E+02 2.19696E+02 0.00000E+00 6.05557E-15 1.32009E-15
 -1        15 1.90167E+02 1.90167E+02 2.19696E+02 0.00000E+00-1.71789E-14 3.68020E-15
 -1        16 1.90167E+02 1.90167E+02 2.19696E+02 0.00000E+00 6.57223E-15 6.17121E-15
 -1        17 1.90167E+02 1.90167E+02 2.19696E+02 0.00000E+00-7.18587E-16 3.35891E-15
 -1        18 1.90167E+02 1.90167E+02 2.19696E+02 0.00000E+00 8.99851E-15-1.15921E-14
 -1        19 1.90167E+02 1.90167E+02 2.19696E+02 0.00000E+00 7.72279E-15-1.65521E-15
 -1        20 1.90167E+02 1.90167E+02 2.19696E+02 0.00000E+00 3.40238E-15 6.59891E-15
 -3
    1PSTEP                       898         180           1          
  100CL  280 376874.2727          20                     0  180           1
 -4  TOSTRAIN    6    1
 -5  EXX         1    4    1    1
 -5  EYY         1    4    2    2
 -5  EZZ         1    4    3    3
 -5  EXY         1    4    1    2
 -5  EYZ         1    4    2    3
 -5  EZX         1    4    3    1
 -1         1 0.00000E+00 0.00000E+00 1.99992E-03 0.00000E+00 4.12546E-19 7.19066E-19
 -1         2 0.00000E+00 0.00000E+00 1.99992E-03 0.00000E+00-6.48839E-19-8.08690E-19
 -1         3 0.00000E+00 0.00000E+00 1.99992E-03 0.00000E+00-1.00914E-19-1.19850E-18
 -1         4 0.00000E+00 0.00000E+00 1.99992E-03 0.00000E+00-2.30863E-19 1.76134E-18
 -1         5 0.00000E+00 0.00000E+00 1.99992E-03 0.00000E+00 2.96159E-19-2.53224E-19
 -1         6 0.00000E+00 0.00000E+00 1.99992E-03 0.00000E+00-2.13856E-19 8.66809E-21
 -1         7 0.00000E+00 0.00000E+00 1.99992E-03 0.00000E+00 1.93228E-18 1.41309E-18
 -1         8 0.00000E+00 0.00000E+00 1.99992E-03 0.00000E+00-2.93494E-21-3.76507E-19
 -1         9 0.00000E+00 0.00000E+00 2.00010E-03 0.00000E+00-4.18795E-19-2.04593E-19
 -1        10 0.00000E+00 0.00000E+00 2.00010E-03 0.00000E+00 4.40404E-19 3.85247E-19
 -1        11 0.00000E+00 0.00000E+00 2.00010E-03 0.00000E+00 2.54597E-19 2.23763E-19
 -1        12 0.00000E+00 0.00000E+00 2.00010E-03 0.00000E+00 2.42075E-19 1.71784E-19
 -1        13 0.00000E+00 0.00000E+00 2.00010E-03 0.00000E+00-1.72104E-19-2.53389E-20
 -1        14 0.00000E+00 0.00000E+00 2.00010E-03 0.00000E+00 4.10158E-19 8.94127E-20
 -1        15 0.00000E+00 0.00000E+00 2.00010E-03 0.00000E+00-1.16356E-18 2.49269E-19
 -1        16 0.00000E+00 0.00000E+00 2.00010E-03 0.00000E+00 4.45153E-19 4.17991E-19
 -1        17 0.00000E+00 0.00000E+00 2.00010E-03 0.00000E+00-4.86716E-20 2.27507E-19
 -1        18 0.00000E+00 0.00000E+00 2.00010E-03 0.00000E+00 6.09490E-19-7.85158E-19
 -1        19 0.00000E+00 0.00000E+00 2.00010E-03 0.00000E+00 5.23083E-19-1.12112E-19
 -1        20 0.00000E+00 0.00000E+00 2.00010E-03 0.00000E+00 2.30452E-19 4.46960E-19
 -3
    1PSTEP                       899         180           1          
  100CL  280 376874.2727          20                     0  180           1
 -4  FORC        4    1
 -5  F1          1    2    1    0
 -5  F2          1    2    2    0
 -5  F3          1    2    3    0
 -5  ALL         1    2    0    0    1ALL
 -1         1-1.58464E+01-1.58464E+01 1.83071E+01
 -1         2-1.58464E+01 1.58464E+01 1.83071E+01
 -1         3-1.58464E+01 1.58464E+01-1.83071E+01
 -1         4-1.58464E+01-1.58464E+01-1.83071E+01
 -1         5 1.58464E+01-1.58464E+01 1.83071E+01
 -1         6 1.58464E+01 1.58464E+01 1.83071E+01
 -1         7 1.58464E+01 1.58464E+01-1.83071E+01
 -1         8 1.58464E+01-1.58464E+01-1.83071E+01
 -1         9 6.33858E+01-6.64364E-15-7.32284E+01
 -1        10 6.33858E+01-6.33858E+01 9.54792E-15
 -1        11 6.33858E+01 2.45254E-15 7.32284E+01
 -1        12 6.33858E+01 6.33858E+01 1.56819E-14
 -1        13-1.50576E-15 6.33858E+01-7.32284E+01
 -1        14 5.49632E-15-6.33858E+01-7.32284E+01
 -1        15 1.83115E-15-6.33858E+01 7.32284E+01
 -1        16-3.32371E-15 6.33858E+01 7.32284E+01
 -1        17-6.33858E+01-3.01194E-16-7.32284E+01
 -1        18-6.33858E+01-6.33858E+01 0.00000E+00
 -1        19-6.33858E+01-1.69721E-15 7.32284E+01
 -1        20-6.33858E+01 6.33858E+01 4.44089E-15
 -3
    1PSTEP                       900         180           1          
  100CL  280 376874.2727          20                     0  180           1
 -4  ERROR       1    1
 -5  STR(%)      1    1    0    0
 -1         1 2.31613E-14
 -1         2 2.31613E-14
 -1         3 2.31613E-14
 -1         4 2.31613E-14
 -1         5 2.31613E-14
 -1         6 2.31613E-14
 -1         7 2.31613E-14
 -1         8 2.31613E-14
 -1         9 2.31613E-14
 -1        10 2.31613E-14
 -1        11 2.31613E-14
 -1        12 2.31613E-14
 -1        13 2.31613E-14
 -1        14 2.31613E-14
 -1        15 2.31613E-14
 -1        16 2.31613E-14
 -1        17 2.31613E-14
 -1        18 2.31613E-14
 -1        19 2.31613E-14
 -1        20 2.31613E-14
 -3
    1PSTEP                       901         181           1          
  100CL  281 379756.4617          20                     0  181           1
 -4  DISP        4    1
 -5  D1          1    2    1    0
 -5  D2          1    2    2    0
 -5  D3          1    2    3    0
 -5  ALL         1    2    0    0    1ALL
 -1         1 0.00000E+00 0.00000E+00 0.00000E+00
 -1         2 0.00000E+00 0.00000E+00 0.00000E+00
 -1         3 0.00000E+00 0.00000E+00 2.00000E-03
 -1         4 0.00000E+00 0.00000E+00 2.00000E-03
 -1         5 0.00000E+00 0.00000E+00 0.00000E+00
 -1         6 0.00000E+00 0.00000E+00 0.00000E+00
 -1         7 0.00000E+00 0.00000E+00 2.00000E-03
 -1         8 0.00000E+00 0.00000E+00 2.00000E-03
 -1         9 0.00000E+00 0.00000E+00 0.00000E+00
 -1        10 0.00000E+00 0.00000E+00 1.00000E-03
 -1        11 0.00000E+00 0.00000E+00 2.00000E-03
 -1        12 0.00000E+00 0.00000E+00 1.00000E-03
 -1        13 0.00000E+00 0.00000E+00 0.00000E+00
 -1        14 0.00000E+00 0.00000E+00 0.00000E+00
 -1        15 0.00000E+00 0.00000E+00 2.00000E-03
 -1        16 0.00000E+00 0.00000E+00 2.00000E-03
 -1        17 0.00000E+00 0.00000E+00 0.00000E+00
 -1        18 0.00000E+00 0.00000E+00 1.00000E-03
 -1        19 0.00000E+00 0.00000E+00 2.00000E-03
 -1        20 0.00000E+00 0.00000E+00 1.00000E-03
 -3
    1PSTEP                       902         181           1          
  100CL  281 379756.4617          20                     0  181           1
 -4  STRESS      6    1
 -5  SXX         1    4    1    1
 -5  SYY         1    4    2    2
 -5  SZZ         1    4    3    3
 -5  SXY         1    4    1    2
 -5  SYZ         1    4    2    3
 -5  SZX         1    4    3    1
 -1         1 1.90262E+02 1.90262E+02 2.19451E+02 0.00000E+00 6.02107E-15 1.04947E-14
 -1         2 1.90262E+02 1.90262E+02 2.19451E+02 0.00000E+00-9.46974E-15-1.18027E-14
 -1         3 1.90262E+02 1.90262E+02 2.19451E+02 0.00000E+00-1.47283E-15-1.74920E-14
 -1         4 1.90262E+02 1.90262E+02 2.19451E+02 0.00000E+00-3.36942E-15 2.57066E-14
 -1         5 1.90262E+02 1.90262E+02 2.19451E+02 0.00000E+00 4.32241E-15-3.69578E-15
 -1         6 1.90262E+02 1.90262E+02 2.19451E+02 0.00000E+00-3.12121E-15 1.26510E-16
 -1         7 1.90262E+02 1.90262E+02 2.19451E+02 0.00000E+00 2.82015E-14 2.06239E-14
 -1         8 1.90262E+02 1.90262E+02 2.19451E+02 0.00000E+00-4.28351E-17-5.49508E-15
 -1         9 1.90280E+02 1.90280E+02 2.19471E+02 0.00000E+00-6.11228E-15-2.98601E-15
 -1        10 1.90280E+02 1.90280E+02 2.19471E+02 0.00000E+00 6.42766E-15 5.62264E-15
 -1        11 1.90280E+02 1.90280E+02 2.19471E+02 0.00000E+00 3.71581E-15 3.26581E-15
 -1        12 1.90280E+02 1.90280E+02 2.19471E+02 0.00000E+00 3.53306E-15 2.50718E-15
 -1        13 1.90280E+02 1.90280E+02 2.19471E+02 0.00000E+00-2.51184E-15-3.69820E-16
 -1        14 1.90280E+02 1.90280E+02 2.19471E+02 0.00000E+00 5.98623E-15 1.30497E-15
 -1        15 1.90280E+02 1.90280E+02 2.19471E+02 0.00000E+00-1.69821E-14 3.63806E-15
 -1        16 1.90280E+02 1.90280E+02 2.19471E+02 0.00000E+00 6.49697E-15 6.10054E-15
 -1        17 1.90280E+02 1.90280E+02 2.19471E+02 0.00000E+00-7.10357E-16 3.32044E-15
 -1        18 1.90280E+02 1.90280E+02 2.19471E+02 0.00000E+00 8.89545E-15-1.14593E-14
 -1        19 1.90280E+02 1.90280E+02 2.19471E+02 0.00000E+00 7.63435E-15-1.63626E-15
 -1        20 1.90280E+02 1.90280E+02 2.19471E+02 0.00000E+00 3.36342E-15 6.52334E-15
 -3
    1PSTEP                       903         181           1          
  100CL  281 379756.4617          20                     0  181           1
 -4  TOSTRAIN    6    1
 -5  EXX         1    4    1    1
 -5  EYY         1    4    2    2
 -5  EZZ         1    4    3    3
 -5  EXY         1    4    1    2
 -5  EYZ         1    4    2    3
 -5  EZX         1    4    3    1
 -1         1 0.00000E+00 0.00000E+00 1.99992E-03 0.00000E+00 4.12546E-19 7.19066E-19
 -1         2 0.00000E+00 0.00000E+00 1.99992E-03 0.00000E+00-6.48839E-19-8.08690E-19
 -1         3 0.00000E+00 0.00000E+00 1.99992E-03 0.00000E+00-1.00914E-19-1.19850E-18
 -1         4 0.00000E+00 0.00000E+00 1.99992E-03 0.00000E+00-2.30863E-19 1.76134E-18
 -1         5 0.00000E+00 0.00000E+00 1.99992E-03 0.00000E+00 2.96159E-19-2.53224E-19
 -1         6 0.00000E+00 0.00000E+00 1.99992E-03 0.00000E+00-2.13856E-19 8.66809E-21
 -1         7 0.00000E+00 0.00000E+00 1.99992E-03 0.00000E+00 1.93228E-18 1.41309E-18
 -1         8 0.00000E+00 0.00000E+00 1.99992E-03 0.00000E+00-2.93494E-21-3.76507E-19
 -1         9 0.00000E+00 0.00000E+00 2.00010E-03 0.00000E+00-4.18795E-19-2.04593E-19
 -1        10 0.00000E+00 0.00000E+00 2.00010E-03 0.00000E+00 4.40404E-19 3.85247E-19
 -1        11 0.00000E+00 0.00000E+00 2.00010E-03 0.00000E+00 2.54597E-19 2.23763E-19
 -1        12 0.00000E+00 0.00000E+00 2.00010E-03 0.00000E+00 2.42075E-19 1.71784E-19
 -1        13 0.00000E+00 0.00000E+00 2.00010E-03 0.00000E+00-1.72104E-19-2.53389E-20
 -1        14 0.00000E+00 0.00000E+00 2.00010E-03 0.00000E+00 4.10158E-19 8.94127E-20
 -1        15 0.00000E+00 0.00000E+00 2.00010E-03 0.00000E+00-1.16356E-18 2.49269E-19
 -1        16 0.00000E+00 0.00000E+00 2.00010E-03 0.00000E+00 4.45153E-19 4.17991E-19
 -1        17 0.00000E+00 0.00000E+00 2.00010E-03 0.00000E+00-4.86716E-20 2.27507E-19
 -1        18 0.00000E+00 0.00000E+00 2.00010E-03 0.00000E+00 6.09490E-19-7.85158E-19
 -1        19 0.00000E+00 0.00000E+00 2.00010E-03 0.00000E+00 5.23083E-19-1.12112E-19
 -1        20 0.00000E+00 0.00000E+00 2.00010E-03 0.00000E+00 2.30452E-19 4.46960E-19
 -3
    1PSTEP                       904         181           1          
  100CL  281 379756.4617          20                     0  181           1
 -4  FORC        4    1
 -5  F1          1    2    1    0
 -5  F2          1    2    2    0
 -5  F3          1    2    3    0
 -5  ALL         1    2    0    0    1ALL
 -1         1-1.58558E+01-1.58558E+01 1.82883E+01
 -1         2-1.58558E+01 1.58558E+01 1.82883E+01
 -1         3-1.58558E+01 1.58558E+01-1.82883E+01
 -1         4-1.58558E+01-1.58558E+01-1.82883E+01
 -1         5 1.58558E+01-1.58558E+01 1.82883E+01
 -1         6 1.58558E+01 1.58558E+01 1.82883E+01
 -1         7 1.58558E+01 1.58558E+01-1.82883E+01
 -1         8 1.58558E+01-1.58558E+01-1.82883E+01
 -1         9 6.34234E+01-8.44763E-15-7.31533E+01
 -1        10 6.34234E+01-6.34234E+01 1.28786E-14
 -1        11 6.34234E+01 4.54027E-16 7.31533E+01
 -1        12 6.34234E+01 6.34234E+01 1.74860E-14
 -1        13-1.14977E-14 6.34234E+01-7.31533E+01
 -1        14 1.41567E-14-6.34234E+01-7.31533E+01
 -1        15 7.15960E-15-6.34234E+01 7.31533E+01
 -1        16-3.98992E-15 6.34234E+01 7.31533E+01
 -1        17-6.34234E+01-7.82433E-17-7.31533E+01
 -1        18-6.34234E+01-6.34234E+01 0.00000E+00
 -1        19-6.34234E+01-1.69811E-15 7.31533E+01
 -1        20-6.34234E+01 6.34234E+01 8.88178E-16
 -3
    1PSTEP                       905         181           1          
  100CL  281 379756.4617          20                     0  181           1
 -4  ERROR       1    1
 -5  STR(%)      1    1    0    0
 -1         1 8.61160E-14
 -1         2 8.61160E-14
 -1         3 8.61160E-14
 -1         4 8.61160E-14
 -1         5 8.61160E-14
 -1         6 8.61160E-14
 -1         7 8.61160E-14
 -1         8 8.61160E-14
 -1         9 8.61160E-14
 -1        10 8.61160E-14
 -1        11 8.61160E-14
 -1        12 8.61160E-14
 -1        13 8.61160E-14
 -1        14 8.61160E-14
 -1        15 8.61160E-14
 -1        16 8.61160E-14
 -1        17 8.61160E-14
 -1        18 8.61160E-14
 -1        19 8.61160E-14
 -1        20 8.61160E-14
 -3
    1PSTEP                       906         182           1          
  100CL  282 384079.7453          20                     0  182           1
 -4  DISP        4    1
 -5  D1          1    2    1    0
 -5  D2          1    2    2    0
 -5  D3          1    2    3    0
 -5  ALL         1    2    0    0    1ALL
 -1         1 0.00000E+00 0.00000E+00 0.00000E+00
 -1         2 0.00000E+00 0.00000E+00 0.00000E+00
 -1         3 0.00000E+00 0.00000E+00 2.00000E-03
 -1         4 0.00000E+00 0.00000E+00 2.00000E-03
 -1         5 0.00000E+00 0.00000E+00 0.00000E+00
 -1         6 0.00000E+00 0.00000E+00 0.00000E+00
 -1         7 0.00000E+00 0.00000E+00 2.00000E-03
 -1         8 0.00000E+00 0.00000E+00 2.00000E-03
 -1         9 0.00000E+00 0.00000E+00 0.00000E+00
 -1        10 0.00000E+00 0.00000E+00 1.00000E-03
 -1        11 0.00000E+00 0.00000E+00 2.00000E-03
 -1        12 0.00000E+00 0.00000E+00 1.00000E-03
 -1        13 0.00000E+00 0.00000E+00 0.00000E+00
 -1        14 0.00000E+00 0.00000E+00 0.00000E+00
 -1        15 0.00000E+00 0.00000E+00 2.00000E-03
 -1        16 0.00000E+00 0.00000E+00 2.00000E-03
 -1        17 0.00000E+00 0.00000E+00 0.00000E+00
 -1        18 0.00000E+00 0.00000E+00 1.00000E-03
 -1        19 0.00000E+00 0.00000E+00 2.00000E-03
 -1        20 0.00000E+00 0.00000E+00 1.00000E-03
 -3
    1PSTEP                       907         182           1          
  100CL  282 384079.7453          20                     0  182           1
 -4  STRESS      6    1
 -5  SXX         1    4    1    1
 -5  SYY         1    4    2    2
 -5  SZZ         1    4    3    3
 -5  SXY         1    4    1    2
 -5  SYZ         1    4    2    3
 -5  SZX         1    4    3    1
 -1         1 1.90429E+02 1.90429E+02 2.19119E+02 0.00000E+00 5.91823E-15 1.03154E-14
 -1         2 1.90429E+02 1.90429E+02 2.19119E+02 0.00000E+00-9.30800E-15-1.16012E-14
 -1         3 1.90429E+02 1.90429E+02 2.19119E+02 0.00000E+00-1.44767E-15-1.71933E-14
 -1         4 1.90429E+02 1.90429E+02 2.19119E+02 0.00000E+00-3.31187E-15 2.52675E-14
 -1         5 1.90429E+02 1.90429E+02 2.19119E+02 0.00000E+00 4.24858E-15-3.63266E-15
 -1         6 1.90429E+02 1.90429E+02 2.19119E+02 0.00000E+00-3.06790E-15 1.24349E-16
 -1         7 1.90429E+02 1.90429E+02 2.19119E+02 0.00000E+00 2.77198E-14 2.02716E-14
 -1         8 1.90429E+02 1.90429E+02 2.19119E+02 0.00000E+00-4.21035E-17-5.40122E-15
 -1         9 1.90446E+02 1.90446E+02 2.19138E+02 0.00000E+00-6.00788E-15-2.93501E-15
 -1        10 1.90446E+02 1.90446E+02 2.19138E+02 0.00000E+00 6.31787E-15 5.52661E-15
 -1        11 1.90446E+02 1.90446E+02 2.19138E+02 0.00000E+00 3.65235E-15 3.21002E-15
 -1        12 1.90446E+02 1.90446E+02 2.19138E+02 0.00000E+00 3.47271E-15 2.46436E-15
 -1        13 1.90446E+02 1.90446E+02 2.19138E+02 0.00000E+00-2.46894E-15-3.63503E-16
 -1        14 1.90446E+02 1.90446E+02 2.19138E+02 0.00000E+00 5.88398E-15 1.28268E-15
 -1        15 1.90446E+02 1.90446E+02 2.19138E+02 0.00000E+00-1.66921E-14 3.57592E-15
 -1        16 1.90446E+02 1.90446E+02 2.19138E+02 0.00000E+00 6.38600E-15 5.99634E-15
 -1        17 1.90446E+02 1.90446E+02 2.19138E+02 0.00000E+00-6.98224E-16 3.26373E-15
 -1        18 1.90446E+02 1.90446E+02 2.19138E+02 0.00000E+00 8.74352E-15-1.12636E-14
 -1        19 1.90446E+02 1.90446E+02 2.19138E+02 0.00000E+00 7.50395E-15-1.60831E-15
 -1        20 1.90446E+02 1.90446E+02 2.19138E+02 0.00000E+00 3.30597E-15 6.41192E-15
 -3
    1PSTEP                       908         182           1          
  100CL  282 384079.7453          20                     0  182           1
 -4  TOSTRAIN    6    1
 -5  EXX         1    4    1    1
 -5  EYY         1    4    2    2
 -5  EZZ         1    4    3    3
 -5  EXY         1    4    1    2
 -5  EYZ         1    4    2    3
 -5  EZX         1    4    3    1
 -1         1 0.00000E+00 0.00000E+00 1.99992E-03 0.00000E+00 4.12546E-19 7.19066E-19
 -1         2 0.00000E+00 0.00000E+00 1.99992E-03 0.00000E+00-6.48839E-19-8.08690E-19
 -1         3 0.00000E+00 0.00000E+00 1.99992E-03 0.00000E+00-1.00914E-19-1.19850E-18
 -1         4 0.00000E+00 0.00000E+00 1.99992E-03 0.00000E+00-2.30863E-19 1.76134E-18
 -1         5 0.00000E+00 0.00000E+00 1.99992E-03 0.00000E+00 2.96159E-19-2.53224E-19
 -1         6 0.00000E+00 0.00000E+00 1.99992E-03 0.00000E+00-2.13856E-19 8.66809E-21
 -1         7 0.00000E+00 0.00000E+00 1.99992E-03 0.00000E+00 1.93228E-18 1.41309E-18
 -1         8 0.00000E+00 0.00000E+00 1.99992E-03 0.00000E+00-2.93494E-21-3.76507E-19
 -1         9 0.00000E+00 0.00000E+00 2.00010E-03 0.00000E+00-4.18795E-19-2.04593E-19
 -1        10 0.00000E+00 0.00000E+00 2.00010E-03 0.00000E+00 4.40404E-19 3.85247E-19
 -1        11 0.00000E+00 0.00000E+00 2.00010E-03 0.00000E+00 2.54597E-19 2.23763E-19
 -1        12 0.00000E+00 0.00000E+00 2.00010E-03 0.00000E+00 2.42075E-19 1.71784E-19
 -1        13 0.00000E+00 0.00000E+00 2.00010E-03 0.00000E+00-1.72104E-19-2.53389E-20
 -1        14 0.00000E+00 0.00000E+00 2.00010E-03 0.00000E+00 4.10158E-19 8.94127E-20
 -1        15 0.00000E+00 0.00000E+00 2.00010E-03 0.00000E+00-1.16356E-18 2.49269E-19
 -1        16 0.00000E+00 0.00000E+00 2.00010E-03 0.00000E+00 4.45153E-19 4.17991E-19
 -1        17 0.00000E+00 0.00000E+00 2.00010E-03 0.00000E+00-4.86716E-20 2.27507E-19
 -1        18 0.00000E+00 0.00000E+00 2.00010E-03 0.00000E+00 6.09490E-19-7.85158E-19
 -1        19 0.00000E+00 0.00000E+00 2.00010E-03 0.00000E+00 5.23083E-19-1.12112E-19
 -1        20 0.00000E+00 0.00000E+00 2.00010E-03 0.00000E+00 2.30452E-19 4.46960E-19
 -3
    1PSTEP                       909         182           1          
  100CL  282 384079.7453          20                     0  182           1
 -4  FORC        4    1
 -5  F1          1    2    1    0
 -5  F2          1    2    2    0
 -5  F3          1    2    3    0
 -5  ALL         1    2    0    0    1ALL
 -1         1-1.58697E+01-1.58697E+01 1.82606E+01
 -1         2-1.58697E+01 1.58697E+01 1.82606E+01
 -1         3-1.58697E+01 1.58697E+01-1.82606E+01
 -1         4-1.58697E+01-1.58697E+01-1.82606E+01
 -1         5 1.58697E+01-1.58697E+01 1.82606E+01
 -1         6 1.58697E+01 1.58697E+01 1.82606E+01
 -1         7 1.58697E+01 1.58697E+01-1.82606E+01
 -1         8 1.58697E+01-1.58697E+01-1.82606E+01
 -1         9 6.34788E+01-8.00337E-15-7.30425E+01
 -1        10 6.34788E+01-6.34788E+01 1.35447E-14
 -1        11 6.34788E+01 6.22702E-15 7.30425E+01
 -1        12 6.34788E+01 6.34788E+01 2.27318E-14
 -1        13 2.43573E-15 6.34788E+01-7.30425E+01
 -1        14 1.79324E-14-6.34788E+01-7.30425E+01
 -1        15 5.32432E-17-6.34788E+01 7.30425E+01
 -1        16-6.65458E-15 6.34788E+01 7.30425E+01
 -1        17-6.34788E+01 3.47581E-15-7.30425E+01
 -1        18-6.34788E+01-6.34788E+01 7.10543E-15
 -1        19-6.34788E+01 7.69069E-17 7.30425E+01
 -1        20-6.34788E+01 6.34788E+01 4.88498E-15
 -3
    1PSTEP                       910         182           1          
  100CL  282 384079.7453          20                     0  182           1
 -4  ERROR       1    1
 -5  STR(%)      1    1    0    0
 -1         1 1.16765E-13
 -1         2 1.16765E-13
 -1         3 1.16765E-13
 -1         4 1.16765E-13
 -1         5 1.16765E-13
 -1         6 1.16765E-13
 -1         7 1.16765E-13
 -1         8 1.16765E-13
 -1         9 1.16765E-13
 -1        10 1.16765E-13
 -1        11 1.16765E-13
 -1        12 1.16765E-13
 -1        13 1.16765E-13
 -1        14 1.16765E-13
 -1        15 1.16765E-13
 -1        16 1.16765E-13
 -1        17 1.16765E-13
 -1        18 1.16765E-13
 -1        19 1.16765E-13
 -1        20 1.16765E-13
 -3
    1PSTEP                       911         183           1          
  100CL  283 386981.2091          20                     0  183           1
 -4  DISP        4    1
 -5  D1          1    2    1    0
 -5  D2          1    2    2    0
 -5  D3          1    2    3    0
 -5  ALL         1    2    0    0    1ALL
 -1         1 0.00000E+00 0.00000E+00 0.00000E+00
 -1         2 0.00000E+00 0.00000E+00 0.00000E+00
 -1         3 0.00000E+00 0.00000E+00 2.00000E-03
 -1         4 0.00000E+00 0.00000E+00 2.00000E-03
 -1         5 0.00000E+00 0.00000E+00 0.00000E+00
 -1         6 0.00000E+00 0.00000E+00 0.00000E+00
 -1         7 0.00000E+00 0.00000E+00 2.00000E-03
 -1         8 0.00000E+00 0.00000E+00 2.00000E-03
 -1         9 0.00000E+00 0.00000E+00 0.00000E+00
 -1        10 0.00000E+00 0.00000E+00 1.00000E-03
 -1        11 0.00000E+00 0.00000E+00 2.00000E-03
 -1        12 0.00000E+00 0.00000E+00 1.00000E-03
 -1        13 0.00000E+00 0.00000E+00 0.00000E+00
 -1        14 0.00000E+00 0.00000E+00 0.00000E+00
 -1        15 0.00000E+00 0.00000E+00 2.00000E-03
 -1        16 0.00000E+00 0.00000E+00 2.00000E-03
 -1        17 0.00000E+00 0.00000E+00 0.00000E+00
 -1        18 0.00000E+00 0.00000E+00 1.00000E-03
 -1        19 0.00000E+00 0.00000E+00 2.00000E-03
 -1        20 0.00000E+00 0.00000E+00 1.00000E-03
 -3
    1PSTEP                       912         183           1          
  100CL  283 386981.2091          20                     0  183           1
 -4  STRESS      6    1
 -5  SXX         1    4    1    1
 -5  SYY         1    4    2    2
 -5  SZZ         1    4    3    3
 -5  SXY         1    4    1    2
 -5  SYZ         1    4    2    3
 -5  SZX         1    4    3    1
 -1         1 1.90539E+02 1.90539E+02 2.18898E+02 0.00000E+00 5.85001E-15 1.01965E-14
 -1         2 1.90539E+02 1.90539E+02 2.18898E+02 0.00000E+00-9.20070E-15-1.14674E-14
 -1         3 1.90539E+02 1.90539E+02 2.18898E+02 0.00000E+00-1.43098E-15-1.69951E-14
 -1         4 1.90539E+02 1.90539E+02 2.18898E+02 0.00000E+00-3.27369E-15 2.49762E-14
 -1         5 1.90539E+02 1.90539E+02 2.18898E+02 0.00000E+00 4.19960E-15-3.59078E-15
 -1         6 1.90539E+02 1.90539E+02 2.18898E+02 0.00000E+00-3.03254E-15 1.22916E-16
 -1         7 1.90539E+02 1.90539E+02 2.18898E+02 0.00000E+00 2.74003E-14 2.00379E-14
 -1         8 1.90539E+02 1.90539E+02 2.18898E+02 0.00000E+00-4.16181E-17-5.33896E-15
 -1         9 1.90556E+02 1.90556E+02 2.18918E+02 0.00000E+00-5.93862E-15-2.90118E-15
 -1        10 1.90556E+02 1.90556E+02 2.18918E+02 0.00000E+00 6.24504E-15 5.46290E-15
 -1        11 1.90556E+02 1.90556E+02 2.18918E+02 0.00000E+00 3.61024E-15 3.17302E-15
 -1        12 1.90556E+02 1.90556E+02 2.18918E+02 0.00000E+00 3.43268E-15 2.43595E-15
 -1        13 1.90556E+02 1.90556E+02 2.18918E+02 0.00000E+00-2.44048E-15-3.59313E-16
 -1        14 1.90556E+02 1.90556E+02 2.18918E+02 0.00000E+00 5.81615E-15 1.26789E-15
 -1        15 1.90556E+02 1.90556E+02 2.18918E+02 0.00000E+00-1.64996E-14 3.53470E-15
 -1        16 1.90556E+02 1.90556E+02 2.18918E+02 0.00000E+00 6.31238E-15 5.92721E-15
 -1        17 1.90556E+02 1.90556E+02 2.18918E+02 0.00000E+00-6.90175E-16 3.22611E-15
 -1        18 1.90556E+02 1.90556E+02 2.18918E+02 0.00000E+00 8.64273E-15-1.11337E-14
 -1        19 1.90556E+02 1.90556E+02 2.18918E+02 0.00000E+00 7.41745E-15-1.58977E-15
 -1        20 1.90556E+02 1.90556E+02 2.18918E+02 0.00000E+00 3.26786E-15 6.33800E-15
 -3
    1PSTEP                       913         183           1          
  100CL  283 386981.2091          20                     0  183           1
 -4  TOSTRAIN    6    1
 -5  EXX         1    4    1    1
 -5  EYY         1    4    2    2
 -5  EZZ         1    4    3    3
 -5  EXY         1    4    1    2
 -5  EYZ         1    4    2    3
 -5  EZX         1    4    3    1
 -1         1 0.00000E+00 0.00000E+00 1.99992E-03 0.00000E+00 4.12546E-19 7.19066E-19
 -1         2 0.00000E+00 0.00000E+00 1.99992E-03 0.00000E+00-6.48839E-19-8.08690E-19
 -1         3 0.00000E+00 0.00000E+00 1.99992E-03 0.00000E+00-1.00914E-19-1.19850E-18
 -1         4 0.00000E+00 0.00000E+00 1.99992E-03 0.00000E+00-2.30863E-19 1.76134E-18
 -1         5 0.00000E+00 0.00000E+00 1.99992E-03 0.00000E+00 2.96159E-19-2.53224E-19
 -1         6 0.00000E+00 0.00000E+00 1.99992E-03 0.00000E+00-2.13856E-19 8.66809E-21
 -1         7 0.00000E+00 0.00000E+00 1.99992E-03 0.00000E+00 1.93228E-18 1.41309E-18
 -1         8 0.00000E+00 0.00000E+00 1.99992E-03 0.00000E+00-2.93494E-21-3.76507E-19
 -1         9 0.00000E+00 0.00000E+00 2.00010E-03 0.00000E+00-4.18795E-19-2.04593E-19
 -1        10 0.00000E+00 0.00000E+00 2.00010E-03 0.00000E+00 4.40404E-19 3.85247E-19
 -1        11 0.00000E+00 0.00000E+00 2.00010E-03 0.00000E+00 2.54597E-19 2.23763E-19
 -1        12 0.00000E+00 0.00000E+00 2.00010E-03 0.00000E+00 2.42075E-19 1.71784E-19
 -1        13 0.00000E+00 0.00000E+00 2.00010E-03 0.00000E+00-1.72104E-19-2.53389E-20
 -1        14 0.00000E+00 0.00000E+00 2.00010E-03 0.00000E+00 4.10158E-19 8.94127E-20
 -1        15 0.00000E+00 0.00000E+00 2.00010E-03 0.00000E+00-1.16356E-18 2.49269E-19
 -1        16 0.00000E+00 0.00000E+00 2.00010E-03 0.00000E+00 4.45153E-19 4.17991E-19
 -1        17 0.00000E+00 0.00000E+00 2.00010E-03 0.00000E+00-4.86716E-20 2.27507E-19
 -1        18 0.00000E+00 0.00000E+00 2.00010E-03 0.00000E+00 6.09490E-19-7.85158E-19
 -1        19 0.00000E+00 0.00000E+00 2.00010E-03 0.00000E+00 5.23083E-19-1.12112E-19
 -1        20 0.00000E+00 0.00000E+00 2.00010E-03 0.00000E+00 2.30452E-19 4.46960E-19
 -3
    1PSTEP                       914         183           1          
  100CL  283 386981.2091          20                     0  183           1
 -4  FORC        4    1
 -5  F1          1    2    1    0
 -5  F2          1    2    2    0
 -5  F3          1    2    3    0
 -5  ALL         1    2    0    0    1ALL
 -1         1-1.58789E+01-1.58789E+01 1.82423E+01
 -1         2-1.58789E+01 1.58789E+01 1.82423E+01
 -1         3-1.58789E+01 1.58789E+01-1.82423E+01
 -1         4-1.58789E+01-1.58789E+01-1.82423E+01
 -1         5 1.58789E+01-1.58789E+01 1.82423E+01
 -1         6 1.58789E+01 1.58789E+01 1.82423E+01
 -1         7 1.58789E+01 1.58789E+01-1.82423E+01
 -1         8 1.58789E+01-1.58789E+01-1.82423E+01
 -1         9 6.35155E+01-6.22690E-15-7.29690E+01
 -1        10 6.35155E+01-6.35155E+01 6.88338E-15
 -1        11 6.35155E+01 2.23010E-15 7.29690E+01
 -1        12 6.35155E+01 6.35155E+01 1.11855E-14
 -1        13-4.55860E-15 6.35155E+01-7.29690E+01
 -1        14 1.12716E-14-6.35155E+01-7.29690E+01
 -1        15-1.59346E-14-6.35155E+01 7.29690E+01
 -1        16-9.98532E-15 6.35155E+01 7.29690E+01
 -1        17-6.35155E+01 3.47669E-15-7.29690E+01
 -1        18-6.35155E+01-6.35155E+01 1.77636E-15
 -1        19-6.35155E+01 3.62873E-15 7.29690E+01
 -1        20-6.35155E+01 6.35155E+01-1.77636E-15
 -3
    1PSTEP                       915         183           1          
  100CL  283 386981.2091          20                     0  183           1
 -4  ERROR       1    1
 -5  STR(%)      1    1    0    0
 -1         1 3.98462E-15
 -1         2 3.98462E-15
 -1         3 3.98462E-15
 -1         4 3.98462E-15
 -1         5 3.98462E-15
 -1         6 3.98462E-15
 -1         7 3.98462E-15
 -1         8 3.98462E-15
 -1         9 3.98462E-15
 -1        10 3.98462E-15
 -1        11 3.98462E-15
 -1        12 3.98462E-15
 -1        13 3.98462E-15
 -1        14 3.98462E-15
 -1        15 3.98462E-15
 -1        16 3.98462E-15
 -1        17 3.98462E-15
 -1        18 3.98462E-15
 -1        19 3.98462E-15
 -1        20 3.98462E-15
 -3
    1PSTEP                       916         184           1          
  100CL  284 389882.6729          20                     0  184           1
 -4  DISP        4    1
 -5  D1          1    2    1    0
 -5  D2          1    2    2    0
 -5  D3          1    2    3    0
 -5  ALL         1    2    0    0    1ALL
 -1         1 0.00000E+00 0.00000E+00 0.00000E+00
 -1         2 0.00000E+00 0.00000E+00 0.00000E+00
 -1         3 0.00000E+00 0.00000E+00 2.00000E-03
 -1         4 0.00000E+00 0.00000E+00 2.00000E-03
 -1         5 0.00000E+00 0.00000E+00 0.00000E+00
 -1         6 0.00000E+00 0.00000E+00 0.00000E+00
 -1         7 0.00000E+00 0.00000E+00 2.00000E-03
 -1         8 0.00000E+00 0.00000E+00 2.00000E-03
 -1         9 0.00000E+00 0.00000E+00 0.00000E+00
 -1        10 0.00000E+00 0.00000E+00 1.00000E-03
 -1        11 0.00000E+00 0.00000E+00 2.00000E-03
 -1        12 0.00000E+00 0.00000E+00 1.00000E-03
 -1        13 0.00000E+00 0.00000E+00 0.00000E+00
 -1        14 0.00000E+00 0.00000E+00 0.00000E+00
 -1        15 0.00000E+00 0.00000E+00 2.00000E-03
 -1        16 0.00000E+00 0.00000E+00 2.00000E-03
 -1        17 0.00000E+00 0.00000E+00 0.00000E+00
 -1        18 0.00000E+00 0.00000E+00 1.00000E-03
 -1        19 0.00000E+00 0.00000E+00 2.00000E-03
 -1        20 0.00000E+00 0.00000E+00 1.00000E-03
 -3
    1PSTEP                       917         184           1          
  100CL  284 389882.6729          20                     0  184           1
 -4  STRESS      6    1
 -5  SXX         1    4    1    1
 -5  SYY         1    4    2    2
 -5  SZZ         1    4    3    3
 -5  SXY         1    4    1    2
 -5  SYZ         1    4    2    3
 -5  SZX         1    4    3    1
 -1         1 1.90648E+02 1.90648E+02 2.18680E+02 0.00000E+00 5.78257E-15 1.00790E-14
 -1         2 1.90648E+02 1.90648E+02 2.18680E+02 0.00000E+00-9.09463E-15-1.13352E-14
 -1         3 1.90648E+02 1.90648E+02 2.18680E+02 0.00000E+00-1.41449E-15-1.67991E-14
 -1         4 1.90648E+02 1.90648E+02 2.18680E+02 0.00000E+00-3.23595E-15 2.46883E-14
 -1         5 1.90648E+02 1.90648E+02 2.18680E+02 0.00000E+00 4.15119E-15-3.54939E-15
 -1         6 1.90648E+02 1.90648E+02 2.18680E+02 0.00000E+00-2.99758E-15 1.21499E-16
 -1         7 1.90648E+02 1.90648E+02 2.18680E+02 0.00000E+00 2.70844E-14 1.98069E-14
 -1         8 1.90648E+02 1.90648E+02 2.18680E+02 0.00000E+00-4.11384E-17-5.27741E-15
 -1         9 1.90665E+02 1.90665E+02 2.18700E+02 0.00000E+00-5.87016E-15-2.86774E-15
 -1        10 1.90665E+02 1.90665E+02 2.18700E+02 0.00000E+00 6.17305E-15 5.39992E-15
 -1        11 1.90665E+02 1.90665E+02 2.18700E+02 0.00000E+00 3.56863E-15 3.13644E-15
 -1        12 1.90665E+02 1.90665E+02 2.18700E+02 0.00000E+00 3.39311E-15 2.40787E-15
 -1        13 1.90665E+02 1.90665E+02 2.18700E+02 0.00000E+00-2.41235E-15-3.55171E-16
 -1        14 1.90665E+02 1.90665E+02 2.18700E+02 0.00000E+00 5.74910E-15 1.25328E-15
 -1        15 1.90665E+02 1.90665E+02 2.18700E+02 0.00000E+00-1.63094E-14 3.49395E-15
 -1        16 1.90665E+02 1.90665E+02 2.18700E+02 0.00000E+00 6.23961E-15 5.85889E-15
 -1        17 1.90665E+02 1.90665E+02 2.18700E+02 0.00000E+00-6.82219E-16 3.18892E-15
 -1        18 1.90665E+02 1.90665E+02 2.18700E+02 0.00000E+00 8.54309E-15-1.10054E-14
 -1        19 1.90665E+02 1.90665E+02 2.18700E+02 0.00000E+00 7.33194E-15-1.57144E-15
 -1        20 1.90665E+02 1.90665E+02 2.18700E+02 0.00000E+00 3.23019E-15 6.26494E-15
 -3
    1PSTEP                       918         184           1          
  100CL  284 389882.6729          20                     0  184           1
 -4  TOSTRAIN    6    1
 -5  EXX         1    4    1    1
 -5  EYY         1    4    2    2
 -5  EZZ         1    4    3    3
 -5  EXY         1    4    1    2
 -5  EYZ         1    4    2    3
 -5  EZX         1    4    3    1
 -1         1 0.00000E+00 0.00000E+00 1.99992E-03 0.00000E+00 4.12546E-19 7.19066E-19
 -1         2 0.00000E+00 0.00000E+00 1.99992E-03 0.00000E+00-6.48839E-19-8.08690E-19
 -1         3 0.00000E+00 0.00000E+00 1.99992E-03 0.00000E+00-1.00914E-19-1.19850E-18
 -1         4 0.00000E+00 0.00000E+00 1.99992E-03 0.00000E+00-2.30863E-19 1.76134E-18
 -1         5 0.00000E+00 0.00000E+00 1.99992E-03 0.00000E+00 2.96159E-19-2.53224E-19
 -1         6 0.00000E+00 0.00000E+00 1.99992E-03 0.00000E+00-2.13856E-19 8.66809E-21
 -1         7 0.00000E+00 0.00000E+00 1.99992E-03 0.00000E+00 1.93228E-18 1.41309E-18
 -1         8 0.00000E+00 0.00000E+00 1.99992E-03 0.00000E+00-2.93494E-21-3.76507E-19
 -1         9 0.00000E+00 0.00000E+00 2.00010E-03 0.00000E+00-4.18795E-19-2.04593E-19
 -1        10 0.00000E+00 0.00000E+00 2.00010E-03 0.00000E+00 4.40404E-19 3.85247E-19
 -1        11 0.00000E+00 0.00000E+00 2.00010E-03 0.00000E+00 2.54597E-19 2.23763E-19
 -1        12 0.00000E+00 0.00000E+00 2.00010E-03 0.00000E+00 2.42075E-19 1.71784E-19
 -1        13 0.00000E+00 0.00000E+00 2.00010E-03 0.00000E+00-1.72104E-19-2.53389E-20
 -1        14 0.00000E+00 0.00000E+00 2.00010E-03 0.00000E+00 4.10158E-19 8.94127E-20
 -1        15 0.00000E+00 0.00000E+00 2.00010E-03 0.00000E+00-1.16356E-18 2.49269E-19
 -1        16 0.00000E+00 0.00000E+00 2.00010E-03 0.00000E+00 4.45153E-19 4.17991E-19
 -1        17 0.00000E+00 0.00000E+00 2.00010E-03 0.00000E+00-4.86716E-20 2.27507E-19
 -1        18 0.00000E+00 0.00000E+00 2.00010E-03 0.00000E+00 6.09490E-19-7.85158E-19
 -1        19 0.00000E+00 0.00000E+00 2.00010E-03 0.00000E+00 5.23083E-19-1.12112E-19
 -1        20 0.00000E+00 0.00000E+00 2.00010E-03 0.00000E+00 2.30452E-19 4.46960E-19
 -3
    1PSTEP                       919         184           1          
  100CL  284 389882.6729          20                     0  184           1
 -4  FORC        4    1
 -5  F1          1    2    1    0
 -5  F2          1    2    2    0
 -5  F3          1    2    3    0
 -5  ALL         1    2    0    0    1ALL
 -1         1-1.58880E+01-1.58880E+01 1.82241E+01
 -1         2-1.58880E+01 1.58880E+01 1.82241E+01
 -1         3-1.58880E+01 1.58880E+01-1.82241E+01
 -1         4-1.58880E+01-1.58880E+01-1.82241E+01
 -1         5 1.58880E+01-1.58880E+01 1.82241E+01
 -1         6 1.58880E+01 1.58880E+01 1.82241E+01
 -1         7 1.58880E+01 1.58880E+01-1.82241E+01
 -1         8 1.58880E+01-1.58880E+01-1.82241E+01
 -1         9 6.35518E+01-8.44724E-15-7.28963E+01
 -1        10 6.35518E+01-6.35518E+01 9.10383E-15
 -1        11 6.35518E+01 2.45204E-15 7.28963E+01
 -1        12 6.35518E+01 6.35518E+01 1.50990E-14
 -1        13-1.74649E-14 6.35518E+01-7.28963E+01
 -1        14-4.96112E-16-6.35518E+01-7.28963E+01
 -1        15 8.93381E-15-6.35518E+01 7.28963E+01
 -1        16-6.87678E-15 6.35518E+01 7.28963E+01
 -1        17-6.35518E+01 1.70121E-15-7.28963E+01
 -1        18-6.35518E+01-6.35518E+01 1.77636E-15
 -1        19-6.35518E+01 7.51440E-17 7.28963E+01
 -1        20-6.35518E+01 6.35518E+01 6.21725E-15
 -3
    1PSTEP                       920         184           1          
  100CL  284 389882.6729          20                     0  184           1
 -4  ERROR       1    1
 -5  STR(%)      1    1    0    0
 -1         1 2.72554E-14
 -1         2 2.72554E-14
 -1         3 2.72554E-14
 -1         4 2.72554E-14
 -1         5 2.72554E-14
 -1         6 2.72554E-14
 -1         7 2.72554E-14
 -1         8 2.72554E-14
 -1         9 2.72554E-14
 -1        10 2.72554E-14
 -1        11 2.72554E-14
 -1        12 2.72554E-14
 -1        13 2.72554E-14
 -1        14 2.72554E-14
 -1        15 2.72554E-14
 -1        16 2.72554E-14
 -1        17 2.72554E-14
 -1        18 2.72554E-14
 -1        19 2.72554E-14
 -1        20 2.72554E-14
 -3
    1PSTEP                       921         185           1          
  100CL  285 394234.8686          20                     0  185           1
 -4  DISP        4    1
 -5  D1          1    2    1    0
 -5  D2          1    2    2    0
 -5  D3          1    2    3    0
 -5  ALL         1    2    0    0    1ALL
 -1         1 0.00000E+00 0.00000E+00 0.00000E+00
 -1         2 0.00000E+00 0.00000E+00 0.00000E+00
 -1         3 0.00000E+00 0.00000E+00 2.00000E-03
 -1         4 0.00000E+00 0.00000E+00 2.00000E-03
 -1         5 0.00000E+00 0.00000E+00 0.00000E+00
 -1         6 0.00000E+00 0.00000E+00 0.00000E+00
 -1         7 0.00000E+00 0.00000E+00 2.00000E-03
 -1         8 0.00000E+00 0.00000E+00 2.00000E-03
 -1         9 0.00000E+00 0.00000E+00 0.00000E+00
 -1        10 0.00000E+00 0.00000E+00 1.00000E-03
 -1        11 0.00000E+00 0.00000E+00 2.00000E-03
 -1        12 0.00000E+00 0.00000E+00 1.00000E-03
 -1        13 0.00000E+00 0.00000E+00 0.00000E+00
 -1        14 0.00000E+00 0.00000E+00 0.00000E+00
 -1        15 0.00000E+00 0.00000E+00 2.00000E-03
 -1        16 0.00000E+00 0.00000E+00 2.00000E-03
 -1        17 0.00000E+00 0.00000E+00 0.00000E+00
 -1        18 0.00000E+00 0.00000E+00 1.00000E-03
 -1        19 0.00000E+00 0.00000E+00 2.00000E-03
 -1        20 0.00000E+00 0.00000E+00 1.00000E-03
 -3
    1PSTEP                       922         185           1          
  100CL  285 394234.8686          20                     0  185           1
 -4  STRESS      6    1
 -5  SXX         1    4    1    1
 -5  SYY         1    4    2    2
 -5  SZZ         1    4    3    3
 -5  SXY         1    4    1    2
 -5  SYZ         1    4    2    3
 -5  SZX         1    4    3    1
 -1         1 1.90809E+02 1.90809E+02 2.18359E+02 0.00000E+00 5.68315E-15 9.90571E-15
 -1         2 1.90809E+02 1.90809E+02 2.18359E+02 0.00000E+00-8.93827E-15-1.11403E-14
 -1         3 1.90809E+02 1.90809E+02 2.18359E+02 0.00000E+00-1.39017E-15-1.65103E-14
 -1         4 1.90809E+02 1.90809E+02 2.18359E+02 0.00000E+00-3.18032E-15 2.42638E-14
 -1         5 1.90809E+02 1.90809E+02 2.18359E+02 0.00000E+00 4.07982E-15-3.48837E-15
 -1         6 1.90809E+02 1.90809E+02 2.18359E+02 0.00000E+00-2.94604E-15 1.19410E-16
 -1         7 1.90809E+02 1.90809E+02 2.18359E+02 0.00000E+00 2.66187E-14 1.94664E-14
 -1         8 1.90809E+02 1.90809E+02 2.18359E+02 0.00000E+00-4.04311E-17-5.18668E-15
 -1         9 1.90826E+02 1.90826E+02 2.18379E+02 0.00000E+00-5.76924E-15-2.81843E-15
 -1        10 1.90826E+02 1.90826E+02 2.18379E+02 0.00000E+00 6.06692E-15 5.30709E-15
 -1        11 1.90826E+02 1.90826E+02 2.18379E+02 0.00000E+00 3.50727E-15 3.08252E-15
 -1        12 1.90826E+02 1.90826E+02 2.18379E+02 0.00000E+00 3.33477E-15 2.36647E-15
 -1        13 1.90826E+02 1.90826E+02 2.18379E+02 0.00000E+00-2.37087E-15-3.49064E-16
 -1        14 1.90826E+02 1.90826E+02 2.18379E+02 0.00000E+00 5.65026E-15 1.23173E-15
 -1        15 1.90826E+02 1.90826E+02 2.18379E+02 0.00000E+00-1.60290E-14 3.43388E-15
 -1        16 1.90826E+02 1.90826E+02 2.18379E+02 0.00000E+00 6.13234E-15 5.75816E-15
 -1        17 1.90826E+02 1.90826E+02 2.18379E+02 0.00000E+00-6.70490E-16 3.13409E-15
 -1        18 1.90826E+02 1.90826E+02 2.18379E+02 0.00000E+00 8.39622E-15-1.08162E-14
 -1        19 1.90826E+02 1.90826E+02 2.18379E+02 0.00000E+00 7.20589E-15-1.54443E-15
 -1        20 1.90826E+02 1.90826E+02 2.18379E+02 0.00000E+00 3.17466E-15 6.15723E-15
 -3
    1PSTEP                       923         185           1          
  100CL  285 394234.8686          20                     0  185           1
 -4  TOSTRAIN    6    1
 -5  EXX         1    4    1    1
 -5  EYY         1    4    2    2
 -5  EZZ         1    4    3    3
 -5  EXY         1    4    1    2
 -5  EYZ         1    4    2    3
 -5  EZX         1    4    3    1
 -1         1 0.00000E+00 0.00000E+00 1.99992E-03 0.00000E+00 4.12546E-19 7.19066E-19
 -1         2 0.00000E+00 0.00000E+00 1.99992E-03 0.00000E+00-6.48839E-19-8.08690E-19
 -1         3 0.00000E+00 0.00000E+00 1.99992E-03 0.00000E+00-1.00914E-19-1.19850E-18
 -1         4 0.00000E+00 0.00000E+00 1.99992E-03 0.00000E+00-2.30863E-19 1.76134E-18
 -1         5 0.00000E+00 0.00000E+00 1.99992E-03 0.00000E+00 2.96159E-19-2.53224E-19
 -1         6 0.00000E+00 0.00000E+00 1.99992E-03 0.00000E+00-2.13856E-19 8.66809E-21
 -1         7 0.00000E+00 0.00000E+00 1.99992E-03 0.00000E+00 1.93228E-18 1.41309E-18
 -1         8 0.00000E+00 0.00000E+00 1.99992E-03 0.00000E+00-2.93494E-21-3.76507E-19
 -1         9 0.00000E+00 0.00000E+00 2.00010E-03 0.00000E+00-4.18795E-19-2.04593E-19
 -1        10 0.00000E+00 0.00000E+00 2.00010E-03 0.00000E+00 4.40404E-19 3.85247E-19
 -1        11 0.00000E+00 0.00000E+00 2.00010E-03 0.00000E+00 2.54597E-19 2.23763E-19
 -1        12 0.00000E+00 0.00000E+00 2.00010E-03 0.00000E+00 2.42075E-19 1.71784E-19
 -1        13 0.00000E+00 0.00000E+00 2.00010E-03 0.00000E+00-1.72104E-19-2.53389E-20
 -1        14 0.00000E+00 0.00000E+00 2.00010E-03 0.00000E+00 4.10158E-19 8.94127E-20
 -1        15 0.00000E+00 0.00000E+00 2.00010E-03 0.00000E+00-1.16356E-18 2.49269E-19
 -1        16 0.00000E+00 0.00000E+00 2.00010E-03 0.00000E+00 4.45153E-19 4.17991E-19
 -1        17 0.00000E+00 0.00000E+00 2.00010E-03 0.00000E+00-4.86716E-20 2.27507E-19
 -1        18 0.00000E+00 0.00000E+00 2.00010E-03 0.00000E+00 6.09490E-19-7.85158E-19
 -1        19 0.00000E+00 0.00000E+00 2.00010E-03 0.00000E+00 5.23083E-19-1.12112E-19
 -1        20 0.00000E+00 0.00000E+00 2.00010E-03 0.00000E+00 2.30452E-19 4.46960E-19
 -3
    1PSTEP                       924         185           1          
  100CL  285 394234.8686          20                     0  185           1
 -4  FORC        4    1
 -5  F1          1    2    1    0
 -5  F2          1    2    2    0
 -5  F3          1    2    3    0
 -5  ALL         1    2    0    0    1ALL
 -1         1-1.59013E+01-1.59013E+01 1.81973E+01
 -1         2-1.59013E+01 1.59013E+01 1.81973E+01
 -1         3-1.59013E+01 1.59013E+01-1.81973E+01
 -1         4-1.59013E+01-1.59013E+01-1.81973E+01
 -1         5 1.59013E+01-1.59013E+01 1.81973E+01
 -1         6 1.59013E+01 1.59013E+01 1.81973E+01
 -1         7 1.59013E+01 1.59013E+01-1.81973E+01
 -1         8 1.59013E+01-1.59013E+01-1.81973E+01
 -1         9 6.36054E+01-8.19727E-15-7.27892E+01
 -1        10 6.36054E+01-6.36054E+01 7.32747E-15
 -1        11 6.36054E+01 4.00618E-15 7.27892E+01
 -1        12 6.36054E+01 6.36054E+01 1.57097E-14
 -1        13-1.16361E-14 6.36054E+01-7.27892E+01
 -1        14 1.03850E-14-6.36054E+01-7.27892E+01
 -1        15-7.05430E-15-6.36054E+01 7.27892E+01
 -1        16-9.09733E-15 6.36054E+01 7.27892E+01
 -1        17-6.36054E+01 1.48046E-15-7.27892E+01
 -1        18-6.36054E+01-6.36054E+01 7.10543E-15
 -1        19-6.36054E+01 1.85021E-15 7.27892E+01
 -1        20-6.36054E+01 6.36054E+01 5.32907E-15
 -3
    1PSTEP                       925         185           1          
  100CL  285 394234.8686          20                     0  185           1
 -4  ERROR       1    1
 -5  STR(%)      1    1    0    0
 -1         1 1.05188E-13
 -1         2 1.05188E-13
 -1         3 1.05188E-13
 -1         4 1.05188E-13
 -1         5 1.05188E-13
 -1         6 1.05188E-13
 -1         7 1.05188E-13
 -1         8 1.05188E-13
 -1         9 1.05188E-13
 -1        10 1.05188E-13
 -1        11 1.05188E-13
 -1        12 1.05188E-13
 -1        13 1.05188E-13
 -1        14 1.05188E-13
 -1        15 1.05188E-13
 -1        16 1.05188E-13
 -1        17 1.05188E-13
 -1        18 1.05188E-13
 -1        19 1.05188E-13
 -1        20 1.05188E-13
 -3
    1PSTEP                       926         186           1          
  100CL  286 397236.7861          20                     0  186           1
 -4  DISP        4    1
 -5  D1          1    2    1    0
 -5  D2          1    2    2    0
 -5  D3          1    2    3    0
 -5  ALL         1    2    0    0    1ALL
 -1         1 0.00000E+00 0.00000E+00 0.00000E+00
 -1         2 0.00000E+00 0.00000E+00 0.00000E+00
 -1         3 0.00000E+00 0.00000E+00 2.00000E-03
 -1         4 0.00000E+00 0.00000E+00 2.00000E-03
 -1         5 0.00000E+00 0.00000E+00 0.00000E+00
 -1         6 0.00000E+00 0.00000E+00 0.00000E+00
 -1         7 0.00000E+00 0.00000E+00 2.00000E-03
 -1         8 0.00000E+00 0.00000E+00 2.00000E-03
 -1         9 0.00000E+00 0.00000E+00 0.00000E+00
 -1        10 0.00000E+00 0.00000E+00 1.00000E-03
 -1        11 0.00000E+00 0.00000E+00 2.00000E-03
 -1        12 0.00000E+00 0.00000E+00 1.00000E-03
 -1        13 0.00000E+00 0.00000E+00 0.00000E+00
 -1        14 0.00000E+00 0.00000E+00 0.00000E+00
 -1        15 0.00000E+00 0.00000E+00 2.00000E-03
 -1        16 0.00000E+00 0.00000E+00 2.00000E-03
 -1        17 0.00000E+00 0.00000E+00 0.00000E+00
 -1        18 0.00000E+00 0.00000E+00 1.00000E-03
 -1        19 0.00000E+00 0.00000E+00 2.00000E-03
 -1        20 0.00000E+00 0.00000E+00 1.00000E-03
 -3
    1PSTEP                       927         186           1          
  100CL  286 397236.7861          20                     0  186           1
 -4  STRESS      6    1
 -5  SXX         1    4    1    1
 -5  SYY         1    4    2    2
 -5  SZZ         1    4    3    3
 -5  SXY         1    4    1    2
 -5  SYZ         1    4    2    3
 -5  SZX         1    4    3    1
 -1         1 1.90918E+02 1.90918E+02 2.18140E+02 0.00000E+00 5.61540E-15 9.78761E-15
 -1         2 1.90918E+02 1.90918E+02 2.18140E+02 0.00000E+00-8.83171E-15-1.10075E-14
 -1         3 1.90918E+02 1.90918E+02 2.18140E+02 0.00000E+00-1.37359E-15-1.63135E-14
 -1         4 1.90918E+02 1.90918E+02 2.18140E+02 0.00000E+00-3.14240E-15 2.39746E-14
 -1         5 1.90918E+02 1.90918E+02 2.18140E+02 0.00000E+00 4.03118E-15-3.44678E-15
 -1         6 1.90918E+02 1.90918E+02 2.18140E+02 0.00000E+00-2.91092E-15 1.17986E-16
 -1         7 1.90918E+02 1.90918E+02 2.18140E+02 0.00000E+00 2.63014E-14 1.92343E-14
 -1         8 1.90918E+02 1.90918E+02 2.18140E+02 0.00000E+00-3.99491E-17-5.12485E-15
 -1         9 1.90935E+02 1.90935E+02 2.18160E+02 0.00000E+00-5.70046E-15-2.78483E-15
 -1        10 1.90935E+02 1.90935E+02 2.18160E+02 0.00000E+00 5.99459E-15 5.24381E-15
 -1        11 1.90935E+02 1.90935E+02 2.18160E+02 0.00000E+00 3.46546E-15 3.04577E-15
 -1        12 1.90935E+02 1.90935E+02 2.18160E+02 0.00000E+00 3.29501E-15 2.33826E-15
 -1        13 1.90935E+02 1.90935E+02 2.18160E+02 0.00000E+00-2.34261E-15-3.44903E-16
 -1        14 1.90935E+02 1.90935E+02 2.18160E+02 0.00000E+00 5.58290E-15 1.21705E-15
 -1        15 1.90935E+02 1.90935E+02 2.18160E+02 0.00000E+00-1.58379E-14 3.39294E-15
 -1        16 1.90935E+02 1.90935E+02 2.18160E+02 0.00000E+00 6.05923E-15 5.68951E-15
 -1        17 1.90935E+02 1.90935E+02 2.18160E+02 0.00000E+00-6.62497E-16 3.09673E-15
 -1        18 1.90935E+02 1.90935E+02 2.18160E+02 0.00000E+00 8.29612E-15-1.06872E-14
 -1        19 1.90935E+02 1.90935E+02 2.18160E+02 0.00000E+00 7.11998E-15-1.52602E-15
 -1        20 1.90935E+02 1.90935E+02 2.18160E+02 0.00000E+00 3.13681E-15 6.08382E-15
 -3
    1PSTEP                       928         186           1          
  100CL  286 397236.7861          20                     0  186           1
 -4  TOSTRAIN    6    1
 -5  EXX         1    4    1    1
 -5  EYY         1    4    2    2
 -5  EZZ         1    4    3    3
 -5  EXY         1    4    1    2
 -5  EYZ         1    4    2    3
 -5  EZX         1    4    3    1
 -1         1 0.00000E+00 0.00000E+00 1.99992E-03 0.00000E+00 4.12546E-19 7.19066E-19
 -1         2 0.00000E+00 0.00000E+00 1.99992E-03 0.00000E+00-6.48839E-19-8.08690E-19
 -1         3 0.00000E+00 0.00000E+00 1.99992E-03 0.00000E+00-1.00914E-19-1.19850E-18
 -1         4 0.00000E+00 0.00000E+00 1.99992E-03 0.00000E+00-2.30863E-19 1.76134E-18
 -1         5 0.00000E+00 0.00000E+00 1.99992E-03 0.00000E+00 2.96159E-19-2.53224E-19
 -1         6 0.00000E+00 0.00000E+00 1.99992E-03 0.00000E+00-2.13856E-19 8.66809E-21
 -1         7 0.00000E+00 0.00000E+00 1.99992E-03 0.00000E+00 1.93228E-18 1.41309E-18
 -1         8 0.00000E+00 0.00000E+00 1.99992E-03 0.00000E+00-2.93494E-21-3.76507E-19
 -1         9 0.00000E+00 0.00000E+00 2.00010E-03 0.00000E+00-4.18795E-19-2.04593E-19
 -1        10 0.00000E+00 0.00000E+00 2.00010E-03 0.00000E+00 4.40404E-19 3.85247E-19
 -1        11 0.00000E+00 0.00000E+00 2.00010E-03 0.00000E+00 2.54597E-19 2.23763E-19
 -1        12 0.00000E+00 0.00000E+00 2.00010E-03 0.00000E+00 2.42075E-19 1.71784E-19
 -1        13 0.00000E+00 0.00000E+00 2.00010E-03 0.00000E+00-1.72104E-19-2.53389E-20
 -1        14 0.00000E+00 0.00000E+00 2.00010E-03 0.00000E+00 4.10158E-19 8.94127E-20
 -1        15 0.00000E+00 0.00000E+00 2.00010E-03 0.00000E+00-1.16356E-18 2.49269E-19
 -1        16 0.00000E+00 0.00000E+00 2.00010E-03 0.00000E+00 4.45153E-19 4.17991E-19
 -1        17 0.00000E+00 0.00000E+00 2.00010E-03 0.00000E+00-4.86716E-20 2.27507E-19
 -1        18 0.00000E+00 0.00000E+00 2.00010E-03 0.00000E+00 6.09490E-19-7.85158E-19
 -1        19 0.00000E+00 0.00000E+00 2.00010E-03 0.00000E+00 5.23083E-19-1.12112E-19
 -1        20 0.00000E+00 0.00000E+00 2.00010E-03 0.00000E+00 2.30452E-19 4.46960E-19
 -3
    1PSTEP                       929         186           1          
  100CL  286 397236.7861          20                     0  186           1
 -4  FORC        4    1
 -5  F1          1    2    1    0
 -5  F2          1    2    2    0
 -5  F3          1    2    3    0
 -5  ALL         1    2    0    0    1ALL
 -1         1-1.59105E+01-1.59105E+01 1.81791E+01
 -1         2-1.59105E+01 1.59105E+01 1.81791E+01
 -1         3-1.59105E+01 1.59105E+01-1.81791E+01
 -1         4-1.59105E+01-1.59105E+01-1.81791E+01
 -1         5 1.59105E+01-1.59105E+01 1.81791E+01
 -1         6 1.59105E+01 1.59105E+01 1.81791E+01
 -1         7 1.59105E+01 1.59105E+01-1.81791E+01
 -1         8 1.59105E+01-1.59105E+01-1.81791E+01
 -1         9 6.36419E+01-6.44856E-15-7.27163E+01
 -1        10 6.36419E+01-6.36419E+01 1.13243E-14
 -1        11 6.36419E+01 2.22971E-15 7.27163E+01
 -1        12 6.36419E+01 6.36419E+01 1.17129E-14
 -1        13-2.19911E-15 6.36419E+01-7.27163E+01
 -1        14 5.50060E-15-6.36419E+01-7.27163E+01
 -1        15 1.82688E-15-6.36419E+01 7.27163E+01
 -1        16-2.43607E-15 6.36419E+01 7.27163E+01
 -1        17-6.36419E+01 3.47974E-15-7.27163E+01
 -1        18-6.36419E+01-6.36419E+01 3.55271E-15
 -1        19-6.36419E+01 3.62569E-15 7.27163E+01
 -1        20-6.36419E+01 6.36419E+01-8.88178E-16
 -3
    1PSTEP                       930         186           1          
  100CL  286 397236.7861          20                     0  186           1
 -4  ERROR       1    1
 -5  STR(%)      1    1    0    0
 -1         1 7.53046E-14
 -1         2 7.53046E-14
 -1         3 7.53046E-14
 -1         4 7.53046E-14
 -1         5 7.53046E-14
 -1         6 7.53046E-14
 -1         7 7.53046E-14
 -1         8 7.53046E-14
 -1         9 7.53046E-14
 -1        10 7.53046E-14
 -1        11 7.53046E-14
 -1        12 7.53046E-14
 -1        13 7.53046E-14
 -1        14 7.53046E-14
 -1        15 7.53046E-14
 -1        16 7.53046E-14
 -1        17 7.53046E-14
 -1        18 7.53046E-14
 -1        19 7.53046E-14
 -1        20 7.53046E-14
 -3
    1PSTEP                       931         187           1          
  100CL  287 400238.7037          20                     0  187           1
 -4  DISP        4    1
 -5  D1          1    2    1    0
 -5  D2          1    2    2    0
 -5  D3          1    2    3    0
 -5  ALL         1    2    0    0    1ALL
 -1         1 0.00000E+00 0.00000E+00 0.00000E+00
 -1         2 0.00000E+00 0.00000E+00 0.00000E+00
 -1         3 0.00000E+00 0.00000E+00 2.00000E-03
 -1         4 0.00000E+00 0.00000E+00 2.00000E-03
 -1         5 0.00000E+00 0.00000E+00 0.00000E+00
 -1         6 0.00000E+00 0.00000E+00 0.00000E+00
 -1         7 0.00000E+00 0.00000E+00 2.00000E-03
 -1         8 0.00000E+00 0.00000E+00 2.00000E-03
 -1         9 0.00000E+00 0.00000E+00 0.00000E+00
 -1        10 0.00000E+00 0.00000E+00 1.00000E-03
 -1        11 0.00000E+00 0.00000E+00 2.00000E-03
 -1        12 0.00000E+00 0.00000E+00 1.00000E-03
 -1        13 0.00000E+00 0.00000E+00 0.00000E+00
 -1        14 0.00000E+00 0.00000E+00 0.00000E+00
 -1        15 0.00000E+00 0.00000E+00 2.00000E-03
 -1        16 0.00000E+00 0.00000E+00 2.00000E-03
 -1        17 0.00000E+00 0.00000E+00 0.00000E+00
 -1        18 0.00000E+00 0.00000E+00 1.00000E-03
 -1        19 0.00000E+00 0.00000E+00 2.00000E-03
 -1        20 0.00000E+00 0.00000E+00 1.00000E-03
 -3
    1PSTEP                       932         187           1          
  100CL  287 400238.7037          20                     0  187           1
 -4  STRESS      6    1
 -5  SXX         1    4    1    1
 -5  SYY         1    4    2    2
 -5  SZZ         1    4    3    3
 -5  SXY         1    4    1    2
 -5  SYZ         1    4    2    3
 -5  SZX         1    4    3    1
 -1         1 1.91026E+02 1.91026E+02 2.17924E+02 0.00000E+00 5.54845E-15 9.67092E-15
 -1         2 1.91026E+02 1.91026E+02 2.17924E+02 0.00000E+00-8.72642E-15-1.08763E-14
 -1         3 1.91026E+02 1.91026E+02 2.17924E+02 0.00000E+00-1.35722E-15-1.61190E-14
 -1         4 1.91026E+02 1.91026E+02 2.17924E+02 0.00000E+00-3.10494E-15 2.36887E-14
 -1         5 1.91026E+02 1.91026E+02 2.17924E+02 0.00000E+00 3.98312E-15-3.40569E-15
 -1         6 1.91026E+02 1.91026E+02 2.17924E+02 0.00000E+00-2.87621E-15 1.16580E-16
 -1         7 1.91026E+02 1.91026E+02 2.17924E+02 0.00000E+00 2.59878E-14 1.90050E-14
 -1         8 1.91026E+02 1.91026E+02 2.17924E+02 0.00000E+00-3.94728E-17-5.06375E-15
 -1         9 1.91043E+02 1.91043E+02 2.17943E+02 0.00000E+00-5.63250E-15-2.75163E-15
 -1        10 1.91043E+02 1.91043E+02 2.17943E+02 0.00000E+00 5.92313E-15 5.18130E-15
 -1        11 1.91043E+02 1.91043E+02 2.17943E+02 0.00000E+00 3.42414E-15 3.00946E-15
 -1        12 1.91043E+02 1.91043E+02 2.17943E+02 0.00000E+00 3.25573E-15 2.31038E-15
 -1        13 1.91043E+02 1.91043E+02 2.17943E+02 0.00000E+00-2.31468E-15-3.40791E-16
 -1        14 1.91043E+02 1.91043E+02 2.17943E+02 0.00000E+00 5.51634E-15 1.20254E-15
 -1        15 1.91043E+02 1.91043E+02 2.17943E+02 0.00000E+00-1.56491E-14 3.35249E-15
 -1        16 1.91043E+02 1.91043E+02 2.17943E+02 0.00000E+00 5.98699E-15 5.62168E-15
 -1        17 1.91043E+02 1.91043E+02 2.17943E+02 0.00000E+00-6.54598E-16 3.05981E-15
 -1        18 1.91043E+02 1.91043E+02 2.17943E+02 0.00000E+00 8.19721E-15-1.05598E-14
 -1        19 1.91043E+02 1.91043E+02 2.17943E+02 0.00000E+00 7.03509E-15-1.50782E-15
 -1        20 1.91043E+02 1.91043E+02 2.17943E+02 0.00000E+00 3.09941E-15 6.01129E-15
 -3
    1PSTEP                       933         187           1          
  100CL  287 400238.7037          20                     0  187           1
 -4  TOSTRAIN    6    1
 -5  EXX         1    4    1    1
 -5  EYY         1    4    2    2
 -5  EZZ         1    4    3    3
 -5  EXY         1    4    1    2
 -5  EYZ         1    4    2    3
 -5  EZX         1    4    3    1
 -1         1 0.00000E+00 0.00000E+00 1.99992E-03 0.00000E+00 4.12546E-19 7.19066E-19
 -1         2 0.00000E+00 0.00000E+00 1.99992E-03 0.00000E+00-6.48839E-19-8.08690E-19
 -1         3 0.00000E+00 0.00000E+00 1.99992E-03 0.00000E+00-1.00914E-19-1.19850E-18
 -1         4 0.00000E+00 0.00000E+00 1.99992E-03 0.00000E+00-2.30863E-19 1.76134E-18
 -1         5 0.00000E+00 0.00000E+00 1.99992E-03 0.00000E+00 2.96159E-19-2.53224E-19
 -1         6 0.00000E+00 0.00000E+00 1.99992E-03 0.00000E+00-2.13856E-19 8.66809E-21
 -1         7 0.00000E+00 0.00000E+00 1.99992E-03 0.00000E+00 1.93228E-18 1.41309E-18
 -1         8 0.00000E+00 0.00000E+00 1.99992E-03 0.00000E+00-2.93494E-21-3.76507E-19
 -1         9 0.00000E+00 0.00000E+00 2.00010E-03 0.00000E+00-4.18795E-19-2.04593E-19
 -1        10 0.00000E+00 0.00000E+00 2.00010E-03 0.00000E+00 4.40404E-19 3.85247E-19
 -1        11 0.00000E+00 0.00000E+00 2.00010E-03 0.00000E+00 2.54597E-19 2.23763E-19
 -1        12 0.00000E+00 0.00000E+00 2.00010E-03 0.00000E+00 2.42075E-19 1.71784E-19
 -1        13 0.00000E+00 0.00000E+00 2.00010E-03 0.00000E+00-1.72104E-19-2.53389E-20
 -1        14 0.00000E+00 0.00000E+00 2.00010E-03 0.00000E+00 4.10158E-19 8.94127E-20
 -1        15 0.00000E+00 0.00000E+00 2.00010E-03 0.00000E+00-1.16356E-18 2.49269E-19
 -1        16 0.00000E+00 0.00000E+00 2.00010E-03 0.00000E+00 4.45153E-19 4.17991E-19
 -1        17 0.00000E+00 0.00000E+00 2.00010E-03 0.00000E+00-4.86716E-20 2.27507E-19
 -1        18 0.00000E+00 0.00000E+00 2.00010E-03 0.00000E+00 6.09490E-19-7.85158E-19
 -1        19 0.00000E+00 0.00000E+00 2.00010E-03 0.00000E+00 5.23083E-19-1.12112E-19
 -1        20 0.00000E+00 0.00000E+00 2.00010E-03 0.00000E+00 2.30452E-19 4.46960E-19
 -3
    1PSTEP                       934         187           1          
  100CL  287 400238.7037          20                     0  187           1
 -4  FORC        4    1
 -5  F1          1    2    1    0
 -5  F2          1    2    2    0
 -5  F3          1    2    3    0
 -5  ALL         1    2    0    0    1ALL
 -1         1-1.59195E+01-1.59195E+01 1.81610E+01
 -1         2-1.59195E+01 1.59195E+01 1.81610E+01
 -1         3-1.59195E+01 1.59195E+01-1.81610E+01
 -1         4-1.59195E+01-1.59195E+01-1.81610E+01
 -1         5 1.59195E+01-1.59195E+01 1.81610E+01
 -1         6 1.59195E+01 1.59195E+01 1.81610E+01
 -1         7 1.59195E+01 1.59195E+01-1.81610E+01
 -1         8 1.59195E+01-1.59195E+01-1.81610E+01
 -1         9 6.36779E+01-4.83863E-15-7.26441E+01
 -1        10 6.36779E+01-6.36779E+01 7.99361E-15
 -1        11 6.36779E+01 2.45165E-15 7.26441E+01
 -1        12 6.36779E+01 6.36779E+01 1.51268E-14
 -1        13-7.36157E-15 6.36779E+01-7.26441E+01
 -1        14 9.72005E-15-6.36779E+01-7.26441E+01
 -1        15-3.50280E-15-6.36779E+01 7.26441E+01
 -1        16-1.53147E-14 6.36779E+01 7.26441E+01
 -1        17-6.36779E+01 1.70426E-15-7.26441E+01
 -1        18-6.36779E+01-6.36779E+01 3.55271E-15
 -1        19-6.36779E+01-1.70426E-15 7.26441E+01
 -1        20-6.36779E+01 6.36779E+01 8.65974E-15
 -3
    1PSTEP                       935         187           1          
  100CL  287 400238.7037          20                     0  187           1
 -4  ERROR       1    1
 -5  STR(%)      1    1    0    0
 -1         1 1.13403E-13
 -1         2 1.13403E-13
 -1         3 1.13403E-13
 -1         4 1.13403E-13
 -1         5 1.13403E-13
 -1         6 1.13403E-13
 -1         7 1.13403E-13
 -1         8 1.13403E-13
 -1         9 1.13403E-13
 -1        10 1.13403E-13
 -1        11 1.13403E-13
 -1        12 1.13403E-13
 -1        13 1.13403E-13
 -1        14 1.13403E-13
 -1        15 1.13403E-13
 -1        16 1.13403E-13
 -1        17 1.13403E-13
 -1        18 1.13403E-13
 -1        19 1.13403E-13
 -1        20 1.13403E-13
 -3
    1PSTEP                       936         188           1          
  100CL  288 404741.5800          20                     0  188           1
 -4  DISP        4    1
 -5  D1          1    2    1    0
 -5  D2          1    2    2    0
 -5  D3          1    2    3    0
 -5  ALL         1    2    0    0    1ALL
 -1         1 0.00000E+00 0.00000E+00 0.00000E+00
 -1         2 0.00000E+00 0.00000E+00 0.00000E+00
 -1         3 0.00000E+00 0.00000E+00 2.00000E-03
 -1         4 0.00000E+00 0.00000E+00 2.00000E-03
 -1         5 0.00000E+00 0.00000E+00 0.00000E+00
 -1         6 0.00000E+00 0.00000E+00 0.00000E+00
 -1         7 0.00000E+00 0.00000E+00 2.00000E-03
 -1         8 0.00000E+00 0.00000E+00 2.00000E-03
 -1         9 0.00000E+00 0.00000E+00 0.00000E+00
 -1        10 0.00000E+00 0.00000E+00 1.00000E-03
 -1        11 0.00000E+00 0.00000E+00 2.00000E-03
 -1        12 0.00000E+00 0.00000E+00 1.00000E-03
 -1        13 0.00000E+00 0.00000E+00 0.00000E+00
 -1        14 0.00000E+00 0.00000E+00 0.00000E+00
 -1        15 0.00000E+00 0.00000E+00 2.00000E-03
 -1        16 0.00000E+00 0.00000E+00 2.00000E-03
 -1        17 0.00000E+00 0.00000E+00 0.00000E+00
 -1        18 0.00000E+00 0.00000E+00 1.00000E-03
 -1        19 0.00000E+00 0.00000E+00 2.00000E-03
 -1        20 0.00000E+00 0.00000E+00 1.00000E-03
 -3
    1PSTEP                       937         188           1          
  100CL  288 404741.5800          20                     0  188           1
 -4  STRESS      6    1
 -5  SXX         1    4    1    1
 -5  SYY         1    4    2    2
 -5  SZZ         1    4    3    3
 -5  SXY         1    4    1    2
 -5  SYZ         1    4    2    3
 -5  SZX         1    4    3    1
 -1         1 1.91186E+02 1.91186E+02 2.17605E+02 0.00000E+00 5.44981E-15 9.49900E-15
 -1         2 1.91186E+02 1.91186E+02 2.17605E+02 0.00000E+00-8.57129E-15-1.06829E-14
 -1         3 1.91186E+02 1.91186E+02 2.17605E+02 0.00000E+00-1.33309E-15-1.58324E-14
 -1         4 1.91186E+02 1.91186E+02 2.17605E+02 0.00000E+00-3.04974E-15 2.32676E-14
 -1         5 1.91186E+02 1.91186E+02 2.17605E+02 0.00000E+00 3.91231E-15-3.34514E-15
 -1         6 1.91186E+02 1.91186E+02 2.17605E+02 0.00000E+00-2.82508E-15 1.14507E-16
 -1         7 1.91186E+02 1.91186E+02 2.17605E+02 0.00000E+00 2.55258E-14 1.86671E-14
 -1         8 1.91186E+02 1.91186E+02 2.17605E+02 0.00000E+00-3.87711E-17-4.97373E-15
 -1         9 1.91203E+02 1.91203E+02 2.17624E+02 0.00000E+00-5.53237E-15-2.70271E-15
 -1        10 1.91203E+02 1.91203E+02 2.17624E+02 0.00000E+00 5.81783E-15 5.08919E-15
 -1        11 1.91203E+02 1.91203E+02 2.17624E+02 0.00000E+00 3.36327E-15 2.95596E-15
 -1        12 1.91203E+02 1.91203E+02 2.17624E+02 0.00000E+00 3.19785E-15 2.26931E-15
 -1        13 1.91203E+02 1.91203E+02 2.17624E+02 0.00000E+00-2.27353E-15-3.34733E-16
 -1        14 1.91203E+02 1.91203E+02 2.17624E+02 0.00000E+00 5.41828E-15 1.18116E-15
 -1        15 1.91203E+02 1.91203E+02 2.17624E+02 0.00000E+00-1.53709E-14 3.29289E-15
 -1        16 1.91203E+02 1.91203E+02 2.17624E+02 0.00000E+00 5.88056E-15 5.52174E-15
 -1        17 1.91203E+02 1.91203E+02 2.17624E+02 0.00000E+00-6.42961E-16 3.00541E-15
 -1        18 1.91203E+02 1.91203E+02 2.17624E+02 0.00000E+00 8.05149E-15-1.03721E-14
 -1        19 1.91203E+02 1.91203E+02 2.17624E+02 0.00000E+00 6.91003E-15-1.48102E-15
 -1        20 1.91203E+02 1.91203E+02 2.17624E+02 0.00000E+00 3.04431E-15 5.90443E-15
 -3
    1PSTEP                       938         188           1          
  100CL  288 404741.5800          20                     0  188           1
 -4  TOSTRAIN    6    1
 -5  EXX         1    4    1    1
 -5  EYY         1    4    2    2
 -5  EZZ         1    4    3    3
 -5  EXY         1    4    1    2
 -5  EYZ         1    4    2    3
 -5  EZX         1    4    3    1
 -1         1 0.00000E+00 0.00000E+00 1.99992E-03 0.00000E+00 4.12546E-19 7.19066E-19
 -1         2 0.00000E+00 0.00000E+00 1.99992E-03 0.00000E+00-6.48839E-19-8.08690E-19
 -1         3 0.00000E+00 0.00000E+00 1.99992E-03 0.00000E+00-1.00914E-19-1.19850E-18
 -1         4 0.00000E+00 0.00000E+00 1.99992E-03 0.00000E+00-2.30863E-19 1.76134E-18
 -1         5 0.00000E+00 0.00000E+00 1.99992E-03 0.00000E+00 2.96159E-19-2.53224E-19
 -1         6 0.00000E+00 0.00000E+00 1.99992E-03 0.00000E+00-2.13856E-19 8.66809E-21
 -1         7 0.00000E+00 0.00000E+00 1.99992E-03 0.00000E+00 1.93228E-18 1.41309E-18
 -1         8 0.00000E+00 0.00000E+00 1.99992E-03 0.00000E+00-2.93494E-21-3.76507E-19
 -1         9 0.00000E+00 0.00000E+00 2.00010E-03 0.00000E+00-4.18795E-19-2.04593E-19
 -1        10 0.00000E+00 0.00000E+00 2.00010E-03 0.00000E+00 4.40404E-19 3.85247E-19
 -1        11 0.00000E+00 0.00000E+00 2.00010E-03 0.00000E+00 2.54597E-19 2.23763E-19
 -1        12 0.00000E+00 0.00000E+00 2.00010E-03 0.00000E+00 2.42075E-19 1.71784E-19
 -1        13 0.00000E+00 0.00000E+00 2.00010E-03 0.00000E+00-1.72104E-19-2.53389E-20
 -1        14 0.00000E+00 0.00000E+00 2.00010E-03 0.00000E+00 4.10158E-19 8.94127E-20
 -1        15 0.00000E+00 0.00000E+00 2.00010E-03 0.00000E+00-1.16356E-18 2.49269E-19
 -1        16 0.00000E+00 0.00000E+00 2.00010E-03 0.00000E+00 4.45153E-19 4.17991E-19
 -1        17 0.00000E+00 0.00000E+00 2.00010E-03 0.00000E+00-4.86716E-20 2.27507E-19
 -1        18 0.00000E+00 0.00000E+00 2.00010E-03 0.00000E+00 6.09490E-19-7.85158E-19
 -1        19 0.00000E+00 0.00000E+00 2.00010E-03 0.00000E+00 5.23083E-19-1.12112E-19
 -1        20 0.00000E+00 0.00000E+00 2.00010E-03 0.00000E+00 2.30452E-19 4.46960E-19
 -3
    1PSTEP                       939         188           1          
  100CL  288 404741.5800          20                     0  188           1
 -4  FORC        4    1
 -5  F1          1    2    1    0
 -5  F2          1    2    2    0
 -5  F3          1    2    3    0
 -5  ALL         1    2    0    0    1ALL
 -1         1-1.59328E+01-1.59328E+01 1.81345E+01
 -1         2-1.59328E+01 1.59328E+01 1.81345E+01
 -1         3-1.59328E+01 1.59328E+01-1.81345E+01
 -1         4-1.59328E+01-1.59328E+01-1.81345E+01
 -1         5 1.59328E+01-1.59328E+01 1.81345E+01
 -1         6 1.59328E+01 1.59328E+01 1.81345E+01
 -1         7 1.59328E+01 1.59328E+01-1.81345E+01
 -1         8 1.59328E+01-1.59328E+01-1.81345E+01
 -1         9 6.37311E+01-4.67193E-15-7.25379E+01
 -1        10 6.37311E+01-6.37311E+01 1.13243E-14
 -1        11 6.37311E+01 2.00740E-15 7.25379E+01
 -1        12 6.37311E+01 6.37311E+01 1.49603E-14
 -1        13 2.40851E-15 6.37311E+01-7.25379E+01
 -1        14 9.05480E-15-6.37311E+01-7.25379E+01
 -1        15-1.72733E-15-6.37311E+01 7.25379E+01
 -1        16-6.87716E-15 6.37311E+01 7.25379E+01
 -1        17-6.37311E+01 5.03621E-15-7.25379E+01
 -1        18-6.37311E+01-6.37311E+01-1.77636E-15
 -1        19-6.37311E+01 7.08199E-17 7.25379E+01
 -1        20-6.37311E+01 6.37311E+01 4.44089E-15
 -3
    1PSTEP                       940         188           1          
  100CL  288 404741.5800          20                     0  188           1
 -4  ERROR       1    1
 -5  STR(%)      1    1    0    0
 -1         1 3.34026E-15
 -1         2 3.34026E-15
 -1         3 3.34026E-15
 -1         4 3.34026E-15
 -1         5 3.34026E-15
 -1         6 3.34026E-15
 -1         7 3.34026E-15
 -1         8 3.34026E-15
 -1         9 3.34026E-15
 -1        10 3.34026E-15
 -1        11 3.34026E-15
 -1        12 3.34026E-15
 -1        13 3.34026E-15
 -1        14 3.34026E-15
 -1        15 3.34026E-15
 -1        16 3.34026E-15
 -1        17 3.34026E-15
 -1        18 3.34026E-15
 -1        19 3.34026E-15
 -1        20 3.34026E-15
 -3
    1PSTEP                       941         189           1          
  100CL  289 407769.9503          20                     0  189           1
 -4  DISP        4    1
 -5  D1          1    2    1    0
 -5  D2          1    2    2    0
 -5  D3          1    2    3    0
 -5  ALL         1    2    0    0    1ALL
 -1         1 0.00000E+00 0.00000E+00 0.00000E+00
 -1         2 0.00000E+00 0.00000E+00 0.00000E+00
 -1         3 0.00000E+00 0.00000E+00 2.00000E-03
 -1         4 0.00000E+00 0.00000E+00 2.00000E-03
 -1         5 0.00000E+00 0.00000E+00 0.00000E+00
 -1         6 0.00000E+00 0.00000E+00 0.00000E+00
 -1         7 0.00000E+00 0.00000E+00 2.00000E-03
 -1         8 0.00000E+00 0.00000E+00 2.00000E-03
 -1         9 0.00000E+00 0.00000E+00 0.00000E+00
 -1        10 0.00000E+00 0.00000E+00 1.00000E-03
 -1        11 0.00000E+00 0.00000E+00 2.00000E-03
 -1        12 0.00000E+00 0.00000E+00 1.00000E-03
 -1        13 0.00000E+00 0.00000E+00 0.00000E+00
 -1        14 0.00000E+00 0.00000E+00 0.00000E+00
 -1        15 0.00000E+00 0.00000E+00 2.00000E-03
 -1        16 0.00000E+00 0.00000E+00 2.00000E-03
 -1        17 0.00000E+00 0.00000E+00 0.00000E+00
 -1        18 0.00000E+00 0.00000E+00 1.00000E-03
 -1        19 0.00000E+00 0.00000E+00 2.00000E-03
 -1        20 0.00000E+00 0.00000E+00 1.00000E-03
 -3
    1PSTEP                       942         189           1          
  100CL  289 407769.9503          20                     0  189           1
 -4  STRESS      6    1
 -5  SXX         1    4    1    1
 -5  SYY         1    4    2    2
 -5  SZZ         1    4    3    3
 -5  SXY         1    4    1    2
 -5  SYZ         1    4    2    3
 -5  SZX         1    4    3    1
 -1         1 1.91291E+02 1.91291E+02 2.17393E+02 0.00000E+00 5.38428E-15 9.38477E-15
 -1         2 1.91291E+02 1.91291E+02 2.17393E+02 0.00000E+00-8.46821E-15-1.05545E-14
 -1         3 1.91291E+02 1.91291E+02 2.17393E+02 0.00000E+00-1.31706E-15-1.56420E-14
 -1         4 1.91291E+02 1.91291E+02 2.17393E+02 0.00000E+00-3.01307E-15 2.29878E-14
 -1         5 1.91291E+02 1.91291E+02 2.17393E+02 0.00000E+00 3.86526E-15-3.30491E-15
 -1         6 1.91291E+02 1.91291E+02 2.17393E+02 0.00000E+00-2.79111E-15 1.13130E-16
 -1         7 1.91291E+02 1.91291E+02 2.17393E+02 0.00000E+00 2.52189E-14 1.84427E-14
 -1         8 1.91291E+02 1.91291E+02 2.17393E+02 0.00000E+00-3.83048E-17-4.91392E-15
 -1         9 1.91309E+02 1.91309E+02 2.17413E+02 0.00000E+00-5.46584E-15-2.67021E-15
 -1        10 1.91309E+02 1.91309E+02 2.17413E+02 0.00000E+00 5.74786E-15 5.02799E-15
 -1        11 1.91309E+02 1.91309E+02 2.17413E+02 0.00000E+00 3.32282E-15 2.92041E-15
 -1        12 1.91309E+02 1.91309E+02 2.17413E+02 0.00000E+00 3.15940E-15 2.24202E-15
 -1        13 1.91309E+02 1.91309E+02 2.17413E+02 0.00000E+00-2.24619E-15-3.30707E-16
 -1        14 1.91309E+02 1.91309E+02 2.17413E+02 0.00000E+00 5.35312E-15 1.16696E-15
 -1        15 1.91309E+02 1.91309E+02 2.17413E+02 0.00000E+00-1.51861E-14 3.25329E-15
 -1        16 1.91309E+02 1.91309E+02 2.17413E+02 0.00000E+00 5.80984E-15 5.45534E-15
 -1        17 1.91309E+02 1.91309E+02 2.17413E+02 0.00000E+00-6.35229E-16 2.96927E-15
 -1        18 1.91309E+02 1.91309E+02 2.17413E+02 0.00000E+00 7.95466E-15-1.02474E-14
 -1        19 1.91309E+02 1.91309E+02 2.17413E+02 0.00000E+00 6.82693E-15-1.46321E-15
 -1        20 1.91309E+02 1.91309E+02 2.17413E+02 0.00000E+00 3.00770E-15 5.83342E-15
 -3
    1PSTEP                       943         189           1          
  100CL  289 407769.9503          20                     0  189           1
 -4  TOSTRAIN    6    1
 -5  EXX         1    4    1    1
 -5  EYY         1    4    2    2
 -5  EZZ         1    4    3    3
 -5  EXY         1    4    1    2
 -5  EYZ         1    4    2    3
 -5  EZX         1    4    3    1
 -1         1 0.00000E+00 0.00000E+00 1.99992E-03 0.00000E+00 4.12546E-19 7.19066E-19
 -1         2 0.00000E+00 0.00000E+00 1.99992E-03 0.00000E+00-6.48839E-19-8.08690E-19
 -1         3 0.00000E+00 0.00000E+00 1.99992E-03 0.00000E+00-1.00914E-19-1.19850E-18
 -1         4 0.00000E+00 0.00000E+00 1.99992E-03 0.00000E+00-2.30863E-19 1.76134E-18
 -1         5 0.00000E+00 0.00000E+00 1.99992E-03 0.00000E+00 2.96159E-19-2.53224E-19
 -1         6 0.00000E+00 0.00000E+00 1.99992E-03 0.00000E+00-2.13856E-19 8.66809E-21
 -1         7 0.00000E+00 0.00000E+00 1.99992E-03 0.00000E+00 1.93228E-18 1.41309E-18
 -1         8 0.00000E+00 0.00000E+00 1.99992E-03 0.00000E+00-2.93494E-21-3.76507E-19
 -1         9 0.00000E+00 0.00000E+00 2.00010E-03 0.00000E+00-4.18795E-19-2.04593E-19
 -1        10 0.00000E+00 0.00000E+00 2.00010E-03 0.00000E+00 4.40404E-19 3.85247E-19
 -1        11 0.00000E+00 0.00000E+00 2.00010E-03 0.00000E+00 2.54597E-19 2.23763E-19
 -1        12 0.00000E+00 0.00000E+00 2.00010E-03 0.00000E+00 2.42075E-19 1.71784E-19
 -1        13 0.00000E+00 0.00000E+00 2.00010E-03 0.00000E+00-1.72104E-19-2.53389E-20
 -1        14 0.00000E+00 0.00000E+00 2.00010E-03 0.00000E+00 4.10158E-19 8.94127E-20
 -1        15 0.00000E+00 0.00000E+00 2.00010E-03 0.00000E+00-1.16356E-18 2.49269E-19
 -1        16 0.00000E+00 0.00000E+00 2.00010E-03 0.00000E+00 4.45153E-19 4.17991E-19
 -1        17 0.00000E+00 0.00000E+00 2.00010E-03 0.00000E+00-4.86716E-20 2.27507E-19
 -1        18 0.00000E+00 0.00000E+00 2.00010E-03 0.00000E+00 6.09490E-19-7.85158E-19
 -1        19 0.00000E+00 0.00000E+00 2.00010E-03 0.00000E+00 5.23083E-19-1.12112E-19
 -1        20 0.00000E+00 0.00000E+00 2.00010E-03 0.00000E+00 2.30452E-19 4.46960E-19
 -3
    1PSTEP                       944         189           1          
  100CL  289 407769.9503          20                     0  189           1
 -4  FORC        4    1
 -5  F1          1    2    1    0
 -5  F2          1    2    2    0
 -5  F3          1    2    3    0
 -5  ALL         1    2    0    0    1ALL
 -1         1-1.59416E+01-1.59416E+01 1.81168E+01
 -1         2-1.59416E+01 1.59416E+01 1.81168E+01
 -1         3-1.59416E+01 1.59416E+01-1.81168E+01
 -1         4-1.59416E+01-1.59416E+01-1.81168E+01
 -1         5 1.59416E+01-1.59416E+01 1.81168E+01
 -1         6 1.59416E+01 1.59416E+01 1.81168E+01
 -1         7 1.59416E+01 1.59416E+01-1.81168E+01
 -1         8 1.59416E+01-1.59416E+01-1.81168E+01
 -1         9 6.37664E+01-8.44658E-15-7.24673E+01
 -1        10 6.37664E+01-6.37664E+01 1.08802E-14
 -1        11 6.37664E+01 3.78365E-15 7.24673E+01
 -1        12 6.37664E+01 6.37664E+01 1.50158E-14
 -1        13-4.55807E-15 6.37664E+01-7.24673E+01
 -1        14-1.82480E-15-6.37664E+01-7.24673E+01
 -1        15 3.60115E-15-6.37664E+01 7.24673E+01
 -1        16-4.43474E-15 6.37664E+01 7.24673E+01
 -1        17-6.37664E+01 5.03706E-15-7.24673E+01
 -1        18-6.37664E+01-6.37664E+01 5.32907E-15
 -1        19-6.37664E+01 5.39904E-15 7.24673E+01
 -1        20-6.37664E+01 6.37664E+01 9.54792E-15
 -3
    1PSTEP                       945         189           1          
  100CL  289 407769.9503          20                     0  189           1
 -4  ERROR       1    1
 -5  STR(%)      1    1    0    0
 -1         1 1.60489E-14
 -1         2 1.60489E-14
 -1         3 1.60489E-14
 -1         4 1.60489E-14
 -1         5 1.60489E-14
 -1         6 1.60489E-14
 -1         7 1.60489E-14
 -1         8 1.60489E-14
 -1         9 1.60489E-14
 -1        10 1.60489E-14
 -1        11 1.60489E-14
 -1        12 1.60489E-14
 -1        13 1.60489E-14
 -1        14 1.60489E-14
 -1        15 1.60489E-14
 -1        16 1.60489E-14
 -1        17 1.60489E-14
 -1        18 1.60489E-14
 -1        19 1.60489E-14
 -1        20 1.60489E-14
 -3
    1PSTEP                       946         190           1          
  100CL  290 410798.3206          20                     0  190           1
 -4  DISP        4    1
 -5  D1          1    2    1    0
 -5  D2          1    2    2    0
 -5  D3          1    2    3    0
 -5  ALL         1    2    0    0    1ALL
 -1         1 0.00000E+00 0.00000E+00 0.00000E+00
 -1         2 0.00000E+00 0.00000E+00 0.00000E+00
 -1         3 0.00000E+00 0.00000E+00 2.00000E-03
 -1         4 0.00000E+00 0.00000E+00 2.00000E-03
 -1         5 0.00000E+00 0.00000E+00 0.00000E+00
 -1         6 0.00000E+00 0.00000E+00 0.00000E+00
 -1         7 0.00000E+00 0.00000E+00 2.00000E-03
 -1         8 0.00000E+00 0.00000E+00 2.00000E-03
 -1         9 0.00000E+00 0.00000E+00 0.00000E+00
 -1        10 0.00000E+00 0.00000E+00 1.00000E-03
 -1        11 0.00000E+00 0.00000E+00 2.00000E-03
 -1        12 0.00000E+00 0.00000E+00 1.00000E-03
 -1        13 0.00000E+00 0.00000E+00 0.00000E+00
 -1        14 0.00000E+00 0.00000E+00 0.00000E+00
 -1        15 0.00000E+00 0.00000E+00 2.00000E-03
 -1        16 0.00000E+00 0.00000E+00 2.00000E-03
 -1        17 0.00000E+00 0.00000E+00 0.00000E+00
 -1        18 0.00000E+00 0.00000E+00 1.00000E-03
 -1        19 0.00000E+00 0.00000E+00 2.00000E-03
 -1        20 0.00000E+00 0.00000E+00 1.00000E-03
 -3
    1PSTEP                       947         190           1          
  100CL  290 410798.3206          20                     0  190           1
 -4  STRESS      6    1
 -5  SXX         1    4    1    1
 -5  SYY         1    4    2    2
 -5  SZZ         1    4    3    3
 -5  SXY         1    4    1    2
 -5  SYZ         1    4    2    3
 -5  SZX         1    4    3    1
 -1         1 1.91396E+02 1.91396E+02 2.17184E+02 0.00000E+00 5.31953E-15 9.27191E-15
 -1         2 1.91396E+02 1.91396E+02 2.17184E+02 0.00000E+00-8.36637E-15-1.04276E-14
 -1         3 1.91396E+02 1.91396E+02 2.17184E+02 0.00000E+00-1.30122E-15-1.54539E-14
 -1         4 1.91396E+02 1.91396E+02 2.17184E+02 0.00000E+00-2.97683E-15 2.27114E-14
 -1         5 1.91396E+02 1.91396E+02 2.17184E+02 0.00000E+00 3.81878E-15-3.26517E-15
 -1         6 1.91396E+02 1.91396E+02 2.17184E+02 0.00000E+00-2.75754E-15 1.11770E-16
 -1         7 1.91396E+02 1.91396E+02 2.17184E+02 0.00000E+00 2.49156E-14 1.82209E-14
 -1         8 1.91396E+02 1.91396E+02 2.17184E+02 0.00000E+00-3.78442E-17-4.85482E-15
 -1         9 1.91413E+02 1.91413E+02 2.17203E+02 0.00000E+00-5.40010E-15-2.63810E-15
 -1        10 1.91413E+02 1.91413E+02 2.17203E+02 0.00000E+00 5.67874E-15 4.96752E-15
 -1        11 1.91413E+02 1.91413E+02 2.17203E+02 0.00000E+00 3.28287E-15 2.88529E-15
 -1        12 1.91413E+02 1.91413E+02 2.17203E+02 0.00000E+00 3.12140E-15 2.21505E-15
 -1        13 1.91413E+02 1.91413E+02 2.17203E+02 0.00000E+00-2.21918E-15-3.26730E-16
 -1        14 1.91413E+02 1.91413E+02 2.17203E+02 0.00000E+00 5.28874E-15 1.15292E-15
 -1        15 1.91413E+02 1.91413E+02 2.17203E+02 0.00000E+00-1.50035E-14 3.21417E-15
 -1        16 1.91413E+02 1.91413E+02 2.17203E+02 0.00000E+00 5.73997E-15 5.38973E-15
 -1        17 1.91413E+02 1.91413E+02 2.17203E+02 0.00000E+00-6.27590E-16 2.93356E-15
 -1        18 1.91413E+02 1.91413E+02 2.17203E+02 0.00000E+00 7.85900E-15-1.01241E-14
 -1        19 1.91413E+02 1.91413E+02 2.17203E+02 0.00000E+00 6.74483E-15-1.44561E-15
 -1        20 1.91413E+02 1.91413E+02 2.17203E+02 0.00000E+00 2.97153E-15 5.76327E-15
 -3
    1PSTEP                       948         190           1          
  100CL  290 410798.3206          20                     0  190           1
 -4  TOSTRAIN    6    1
 -5  EXX         1    4    1    1
 -5  EYY         1    4    2    2
 -5  EZZ         1    4    3    3
 -5  EXY         1    4    1    2
 -5  EYZ         1    4    2    3
 -5  EZX         1    4    3    1
 -1         1 0.00000E+00 0.00000E+00 1.99992E-03 0.00000E+00 4.12546E-19 7.19066E-19
 -1         2 0.00000E+00 0.00000E+00 1.99992E-03 0.00000E+00-6.48839E-19-8.08690E-19
 -1         3 0.00000E+00 0.00000E+00 1.99992E-03 0.00000E+00-1.00914E-19-1.19850E-18
 -1         4 0.00000E+00 0.00000E+00 1.99992E-03 0.00000E+00-2.30863E-19 1.76134E-18
 -1         5 0.00000E+00 0.00000E+00 1.99992E-03 0.00000E+00 2.96159E-19-2.53224E-19
 -1         6 0.00000E+00 0.00000E+00 1.99992E-03 0.00000E+00-2.13856E-19 8.66809E-21
 -1         7 0.00000E+00 0.00000E+00 1.99992E-03 0.00000E+00 1.93228E-18 1.41309E-18
 -1         8 0.00000E+00 0.00000E+00 1.99992E-03 0.00000E+00-2.93494E-21-3.76507E-19
 -1         9 0.00000E+00 0.00000E+00 2.00010E-03 0.00000E+00-4.18795E-19-2.04593E-19
 -1        10 0.00000E+00 0.00000E+00 2.00010E-03 0.00000E+00 4.40404E-19 3.85247E-19
 -1        11 0.00000E+00 0.00000E+00 2.00010E-03 0.00000E+00 2.54597E-19 2.23763E-19
 -1        12 0.00000E+00 0.00000E+00 2.00010E-03 0.00000E+00 2.42075E-19 1.71784E-19
 -1        13 0.00000E+00 0.00000E+00 2.00010E-03 0.00000E+00-1.72104E-19-2.53389E-20
 -1        14 0.00000E+00 0.00000E+00 2.00010E-03 0.00000E+00 4.10158E-19 8.94127E-20
 -1        15 0.00000E+00 0.00000E+00 2.00010E-03 0.00000E+00-1.16356E-18 2.49269E-19
 -1        16 0.00000E+00 0.00000E+00 2.00010E-03 0.00000E+00 4.45153E-19 4.17991E-19
 -1        17 0.00000E+00 0.00000E+00 2.00010E-03 0.00000E+00-4.86716E-20 2.27507E-19
 -1        18 0.00000E+00 0.00000E+00 2.00010E-03 0.00000E+00 6.09490E-19-7.85158E-19
 -1        19 0.00000E+00 0.00000E+00 2.00010E-03 0.00000E+00 5.23083E-19-1.12112E-19
 -1        20 0.00000E+00 0.00000E+00 2.00010E-03 0.00000E+00 2.30452E-19 4.46960E-19
 -3
    1PSTEP                       949         190           1          
  100CL  290 410798.3206          20                     0  190           1
 -4  FORC        4    1
 -5  F1          1    2    1    0
 -5  F2          1    2    2    0
 -5  F3          1    2    3    0
 -5  ALL         1    2    0    0    1ALL
 -1         1-1.59503E+01-1.59503E+01 1.80994E+01
 -1         2-1.59503E+01 1.59503E+01 1.80994E+01
 -1         3-1.59503E+01 1.59503E+01-1.80994E+01
 -1         4-1.59503E+01-1.59503E+01-1.80994E+01
 -1         5 1.59503E+01-1.59503E+01 1.80994E+01
 -1         6 1.59503E+01 1.59503E+01 1.80994E+01
 -1         7 1.59503E+01 1.59503E+01-1.80994E+01
 -1         8 1.59503E+01-1.59503E+01-1.80994E+01
 -1         9 6.38012E+01-2.86760E-15-7.23975E+01
 -1        10 6.38012E+01-6.38012E+01 7.54952E-15
 -1        11 6.38012E+01 4.00558E-15 7.23975E+01
 -1        12 6.38012E+01 6.38012E+01 1.16573E-14
 -1        13-1.31059E-15 6.38012E+01-7.23975E+01
 -1        14 1.83818E-14-6.38012E+01-7.23975E+01
 -1        15-1.72850E-15-6.38012E+01 7.23975E+01
 -1        16-1.77028E-15 6.38012E+01 7.23975E+01
 -1        17-6.38012E+01 3.48359E-15-7.23975E+01
 -1        18-6.38012E+01-6.38012E+01 3.55271E-15
 -1        19-6.38012E+01 6.91268E-17 7.23975E+01
 -1        20-6.38012E+01 6.38012E+01 4.44089E-16
 -3
    1PSTEP                       950         190           1          
  100CL  290 410798.3206          20                     0  190           1
 -4  ERROR       1    1
 -5  STR(%)      1    1    0    0
 -1         1 3.34673E-15
 -1         2 3.34673E-15
 -1         3 3.34673E-15
 -1         4 3.34673E-15
 -1         5 3.34673E-15
 -1         6 3.34673E-15
 -1         7 3.34673E-15
 -1         8 3.34673E-15
 -1         9 3.34673E-15
 -1        10 3.34673E-15
 -1        11 3.34673E-15
 -1        12 3.34673E-15
 -1        13 3.34673E-15
 -1        14 3.34673E-15
 -1        15 3.34673E-15
 -1        16 3.34673E-15
 -1        17 3.34673E-15
 -1        18 3.34673E-15
 -1        19 3.34673E-15
 -1        20 3.34673E-15
 -3
    1PSTEP                       951         191           1          
  100CL  291 415340.8762          20                     0  191           1
 -4  DISP        4    1
 -5  D1          1    2    1    0
 -5  D2          1    2    2    0
 -5  D3          1    2    3    0
 -5  ALL         1    2    0    0    1ALL
 -1         1 0.00000E+00 0.00000E+00 0.00000E+00
 -1         2 0.00000E+00 0.00000E+00 0.00000E+00
 -1         3 0.00000E+00 0.00000E+00 2.00000E-03
 -1         4 0.00000E+00 0.00000E+00 2.00000E-03
 -1         5 0.00000E+00 0.00000E+00 0.00000E+00
 -1         6 0.00000E+00 0.00000E+00 0.00000E+00
 -1         7 0.00000E+00 0.00000E+00 2.00000E-03
 -1         8 0.00000E+00 0.00000E+00 2.00000E-03
 -1         9 0.00000E+00 0.00000E+00 0.00000E+00
 -1        10 0.00000E+00 0.00000E+00 1.00000E-03
 -1        11 0.00000E+00 0.00000E+00 2.00000E-03
 -1        12 0.00000E+00 0.00000E+00 1.00000E-03
 -1        13 0.00000E+00 0.00000E+00 0.00000E+00
 -1        14 0.00000E+00 0.00000E+00 0.00000E+00
 -1        15 0.00000E+00 0.00000E+00 2.00000E-03
 -1        16 0.00000E+00 0.00000E+00 2.00000E-03
 -1        17 0.00000E+00 0.00000E+00 0.00000E+00
 -1        18 0.00000E+00 0.00000E+00 1.00000E-03
 -1        19 0.00000E+00 0.00000E+00 2.00000E-03
 -1        20 0.00000E+00 0.00000E+00 1.00000E-03
 -3
    1PSTEP                       952         191           1          
  100CL  291 415340.8762          20                     0  191           1
 -4  STRESS      6    1
 -5  SXX         1    4    1    1
 -5  SYY         1    4    2    2
 -5  SZZ         1    4    3    3
 -5  SXY         1    4    1    2
 -5  SYZ         1    4    2    3
 -5  SZX         1    4    3    1
 -1         1 1.91550E+02 1.91550E+02 2.16876E+02 0.00000E+00 5.22414E-15 9.10565E-15
 -1         2 1.91550E+02 1.91550E+02 2.16876E+02 0.00000E+00-8.21636E-15-1.02406E-14
 -1         3 1.91550E+02 1.91550E+02 2.16876E+02 0.00000E+00-1.27789E-15-1.51768E-14
 -1         4 1.91550E+02 1.91550E+02 2.16876E+02 0.00000E+00-2.92346E-15 2.23041E-14
 -1         5 1.91550E+02 1.91550E+02 2.16876E+02 0.00000E+00 3.75031E-15-3.20662E-15
 -1         6 1.91550E+02 1.91550E+02 2.16876E+02 0.00000E+00-2.70810E-15 1.09766E-16
 -1         7 1.91550E+02 1.91550E+02 2.16876E+02 0.00000E+00 2.44688E-14 1.78941E-14
 -1         8 1.91550E+02 1.91550E+02 2.16876E+02 0.00000E+00-3.71656E-17-4.76777E-15
 -1         9 1.91567E+02 1.91567E+02 2.16895E+02 0.00000E+00-5.30327E-15-2.59080E-15
 -1        10 1.91567E+02 1.91567E+02 2.16895E+02 0.00000E+00 5.57692E-15 4.87845E-15
 -1        11 1.91567E+02 1.91567E+02 2.16895E+02 0.00000E+00 3.22400E-15 2.83355E-15
 -1        12 1.91567E+02 1.91567E+02 2.16895E+02 0.00000E+00 3.06543E-15 2.17534E-15
 -1        13 1.91567E+02 1.91567E+02 2.16895E+02 0.00000E+00-2.17938E-15-3.20871E-16
 -1        14 1.91567E+02 1.91567E+02 2.16895E+02 0.00000E+00 5.19391E-15 1.13225E-15
 -1        15 1.91567E+02 1.91567E+02 2.16895E+02 0.00000E+00-1.47344E-14 3.15654E-15
 -1        16 1.91567E+02 1.91567E+02 2.16895E+02 0.00000E+00 5.63705E-15 5.29309E-15
 -1        17 1.91567E+02 1.91567E+02 2.16895E+02 0.00000E+00-6.16337E-16 2.88096E-15
 -1        18 1.91567E+02 1.91567E+02 2.16895E+02 0.00000E+00 7.71808E-15-9.94259E-15
 -1        19 1.91567E+02 1.91567E+02 2.16895E+02 0.00000E+00 6.62389E-15-1.41969E-15
 -1        20 1.91567E+02 1.91567E+02 2.16895E+02 0.00000E+00 2.91825E-15 5.65993E-15
 -3
    1PSTEP                       953         191           1          
  100CL  291 415340.8762          20                     0  191           1
 -4  TOSTRAIN    6    1
 -5  EXX         1    4    1    1
 -5  EYY         1    4    2    2
 -5  EZZ         1    4    3    3
 -5  EXY         1    4    1    2
 -5  EYZ         1    4    2    3
 -5  EZX         1    4    3    1
 -1         1 0.00000E+00 0.00000E+00 1.99992E-03 0.00000E+00 4.12546E-19 7.19066E-19
 -1         2 0.00000E+00 0.00000E+00 1.99992E-03 0.00000E+00-6.48839E-19-8.08690E-19
 -1         3 0.00000E+00 0.00000E+00 1.99992E-03 0.00000E+00-1.00914E-19-1.19850E-18
 -1         4 0.00000E+00 0.00000E+00 1.99992E-03 0.00000E+00-2.30863E-19 1.76134E-18
 -1         5 0.00000E+00 0.00000E+00 1.99992E-03 0.00000E+00 2.96159E-19-2.53224E-19
 -1         6 0.00000E+00 0.00000E+00 1.99992E-03 0.00000E+00-2.13856E-19 8.66809E-21
 -1         7 0.00000E+00 0.00000E+00 1.99992E-03 0.00000E+00 1.93228E-18 1.41309E-18
 -1         8 0.00000E+00 0.00000E+00 1.99992E-03 0.00000E+00-2.93494E-21-3.76507E-19
 -1         9 0.00000E+00 0.00000E+00 2.00010E-03 0.00000E+00-4.18795E-19-2.04593E-19
 -1        10 0.00000E+00 0.00000E+00 2.00010E-03 0.00000E+00 4.40404E-19 3.85247E-19
 -1        11 0.00000E+00 0.00000E+00 2.00010E-03 0.00000E+00 2.54597E-19 2.23763E-19
 -1        12 0.00000E+00 0.00000E+00 2.00010E-03 0.00000E+00 2.42075E-19 1.71784E-19
 -1        13 0.00000E+00 0.00000E+00 2.00010E-03 0.00000E+00-1.72104E-19-2.53389E-20
 -1        14 0.00000E+00 0.00000E+00 2.00010E-03 0.00000E+00 4.10158E-19 8.94127E-20
 -1        15 0.00000E+00 0.00000E+00 2.00010E-03 0.00000E+00-1.16356E-18 2.49269E-19
 -1        16 0.00000E+00 0.00000E+00 2.00010E-03 0.00000E+00 4.45153E-19 4.17991E-19
 -1        17 0.00000E+00 0.00000E+00 2.00010E-03 0.00000E+00-4.86716E-20 2.27507E-19
 -1        18 0.00000E+00 0.00000E+00 2.00010E-03 0.00000E+00 6.09490E-19-7.85158E-19
 -1        19 0.00000E+00 0.00000E+00 2.00010E-03 0.00000E+00 5.23083E-19-1.12112E-19
 -1        20 0.00000E+00 0.00000E+00 2.00010E-03 0.00000E+00 2.30452E-19 4.46960E-19
 -3
    1PSTEP                       954         191           1          
  100CL  291 415340.8762          20                     0  191           1
 -4  FORC        4    1
 -5  F1          1    2    1    0
 -5  F2          1    2    2    0
 -5  F3          1    2    3    0
 -5  ALL         1    2    0    0    1ALL
 -1         1-1.59632E+01-1.59632E+01 1.80737E+01
 -1         2-1.59632E+01 1.59632E+01 1.80737E+01
 -1         3-1.59632E+01 1.59632E+01-1.80737E+01
 -1         4-1.59632E+01-1.59632E+01-1.80737E+01
 -1         5 1.59632E+01-1.59632E+01 1.80737E+01
 -1         6 1.59632E+01 1.59632E+01 1.80737E+01
 -1         7 1.59632E+01 1.59632E+01-1.80737E+01
 -1         8 1.59632E+01-1.59632E+01-1.80737E+01
 -1         9 6.38526E+01-8.41856E-15-7.22947E+01
 -1        10 6.38526E+01-6.38526E+01 7.77156E-15
 -1        11 6.38526E+01 2.22907E-15 7.22947E+01
 -1        12 6.38526E+01 6.38526E+01 1.07137E-14
 -1        13-9.69267E-15 6.38526E+01-7.22947E+01
 -1        14 1.50520E-14-6.38526E+01-7.22947E+01
 -1        15-5.28207E-15-6.38526E+01 7.22947E+01
 -1        16 5.96964E-18 6.38526E+01 7.22947E+01
 -1        17-6.38526E+01 3.48483E-15-7.22947E+01
 -1        18-6.38526E+01-6.38526E+01 0.00000E+00
 -1        19-6.38526E+01-3.48483E-15 7.22947E+01
 -1        20-6.38526E+01 6.38526E+01-1.33227E-15
 -3
    1PSTEP                       955         191           1          
  100CL  291 415340.8762          20                     0  191           1
 -4  ERROR       1    1
 -5  STR(%)      1    1    0    0
 -1         1 9.38417E-15
 -1         2 9.38417E-15
 -1         3 9.38417E-15
 -1         4 9.38417E-15
 -1         5 9.38417E-15
 -1         6 9.38417E-15
 -1         7 9.38417E-15
 -1         8 9.38417E-15
 -1         9 9.38417E-15
 -1        10 9.38417E-15
 -1        11 9.38417E-15
 -1        12 9.38417E-15
 -1        13 9.38417E-15
 -1        14 9.38417E-15
 -1        15 9.38417E-15
 -1        16 9.38417E-15
 -1        17 9.38417E-15
 -1        18 9.38417E-15
 -1        19 9.38417E-15
 -1        20 9.38417E-15
 -3
    1PSTEP                       956         192           1          
  100CL  292 418473.2004          20                     0  192           1
 -4  DISP        4    1
 -5  D1          1    2    1    0
 -5  D2          1    2    2    0
 -5  D3          1    2    3    0
 -5  ALL         1    2    0    0    1ALL
 -1         1 0.00000E+00 0.00000E+00 0.00000E+00
 -1         2 0.00000E+00 0.00000E+00 0.00000E+00
 -1         3 0.00000E+00 0.00000E+00 2.00000E-03
 -1         4 0.00000E+00 0.00000E+00 2.00000E-03
 -1         5 0.00000E+00 0.00000E+00 0.00000E+00
 -1         6 0.00000E+00 0.00000E+00 0.00000E+00
 -1         7 0.00000E+00 0.00000E+00 2.00000E-03
 -1         8 0.00000E+00 0.00000E+00 2.00000E-03
 -1         9 0.00000E+00 0.00000E+00 0.00000E+00
 -1        10 0.00000E+00 0.00000E+00 1.00000E-03
 -1        11 0.00000E+00 0.00000E+00 2.00000E-03
 -1        12 0.00000E+00 0.00000E+00 1.00000E-03
 -1        13 0.00000E+00 0.00000E+00 0.00000E+00
 -1        14 0.00000E+00 0.00000E+00 0.00000E+00
 -1        15 0.00000E+00 0.00000E+00 2.00000E-03
 -1        16 0.00000E+00 0.00000E+00 2.00000E-03
 -1        17 0.00000E+00 0.00000E+00 0.00000E+00
 -1        18 0.00000E+00 0.00000E+00 1.00000E-03
 -1        19 0.00000E+00 0.00000E+00 2.00000E-03
 -1        20 0.00000E+00 0.00000E+00 1.00000E-03
 -3
    1PSTEP                       957         192           1          
  100CL  292 418473.2004          20                     0  192           1
 -4  STRESS      6    1
 -5  SXX         1    4    1    1
 -5  SYY         1    4    2    2
 -5  SZZ         1    4    3    3
 -5  SXY         1    4    1    2
 -5  SYZ         1    4    2    3
 -5  SZX         1    4    3    1
 -1         1 1.91655E+02 1.91655E+02 2.16666E+02 0.00000E+00 5.15919E-15 8.99244E-15
 -1         2 1.91655E+02 1.91655E+02 2.16666E+02 0.00000E+00-8.11420E-15-1.01132E-14
 -1         3 1.91655E+02 1.91655E+02 2.16666E+02 0.00000E+00-1.26200E-15-1.49881E-14
 -1         4 1.91655E+02 1.91655E+02 2.16666E+02 0.00000E+00-2.88711E-15 2.20268E-14
 -1         5 1.91655E+02 1.91655E+02 2.16666E+02 0.00000E+00 3.70368E-15-3.16675E-15
 -1         6 1.91655E+02 1.91655E+02 2.16666E+02 0.00000E+00-2.67443E-15 1.08401E-16
 -1         7 1.91655E+02 1.91655E+02 2.16666E+02 0.00000E+00 2.41646E-14 1.76717E-14
 -1         8 1.91655E+02 1.91655E+02 2.16666E+02 0.00000E+00-3.67035E-17-4.70849E-15
 -1         9 1.91672E+02 1.91672E+02 2.16685E+02 0.00000E+00-5.23734E-15-2.55858E-15
 -1        10 1.91672E+02 1.91672E+02 2.16685E+02 0.00000E+00 5.50758E-15 4.81779E-15
 -1        11 1.91672E+02 1.91672E+02 2.16685E+02 0.00000E+00 3.18391E-15 2.79832E-15
 -1        12 1.91672E+02 1.91672E+02 2.16685E+02 0.00000E+00 3.02732E-15 2.14829E-15
 -1        13 1.91672E+02 1.91672E+02 2.16685E+02 0.00000E+00-2.15229E-15-3.16882E-16
 -1        14 1.91672E+02 1.91672E+02 2.16685E+02 0.00000E+00 5.12933E-15 1.11817E-15
 -1        15 1.91672E+02 1.91672E+02 2.16685E+02 0.00000E+00-1.45512E-14 3.11729E-15
 -1        16 1.91672E+02 1.91672E+02 2.16685E+02 0.00000E+00 5.56696E-15 5.22728E-15
 -1        17 1.91672E+02 1.91672E+02 2.16685E+02 0.00000E+00-6.08674E-16 2.84514E-15
 -1        18 1.91672E+02 1.91672E+02 2.16685E+02 0.00000E+00 7.62212E-15-9.81897E-15
 -1        19 1.91672E+02 1.91672E+02 2.16685E+02 0.00000E+00 6.54153E-15-1.40204E-15
 -1        20 1.91672E+02 1.91672E+02 2.16685E+02 0.00000E+00 2.88196E-15 5.58956E-15
 -3
    1PSTEP                       958         192           1          
  100CL  292 418473.2004          20                     0  192           1
 -4  TOSTRAIN    6    1
 -5  EXX         1    4    1    1
 -5  EYY         1    4    2    2
 -5  EZZ         1    4    3    3
 -5  EXY         1    4    1    2
 -5  EYZ         1    4    2    3
 -5  EZX         1    4    3    1
 -1         1 0.00000E+00 0.00000E+00 1.99992E-03 0.00000E+00 4.12546E-19 7.19066E-19
 -1         2 0.00000E+00 0.00000E+00 1.99992E-03 0.00000E+00-6.48839E-19-8.08690E-19
 -1         3 0.00000E+00 0.00000E+00 1.99992E-03 0.00000E+00-1.00914E-19-1.19850E-18
 -1         4 0.00000E+00 0.00000E+00 1.99992E-03 0.00000E+00-2.30863E-19 1.76134E-18
 -1         5 0.00000E+00 0.00000E+00 1.99992E-03 0.00000E+00 2.96159E-19-2.53224E-19
 -1         6 0.00000E+00 0.00000E+00 1.99992E-03 0.00000E+00-2.13856E-19 8.66809E-21
 -1         7 0.00000E+00 0.00000E+00 1.99992E-03 0.00000E+00 1.93228E-18 1.41309E-18
 -1         8 0.00000E+00 0.00000E+00 1.99992E-03 0.00000E+00-2.93494E-21-3.76507E-19
 -1         9 0.00000E+00 0.00000E+00 2.00010E-03 0.00000E+00-4.18795E-19-2.04593E-19
 -1        10 0.00000E+00 0.00000E+00 2.00010E-03 0.00000E+00 4.40404E-19 3.85247E-19
 -1        11 0.00000E+00 0.00000E+00 2.00010E-03 0.00000E+00 2.54597E-19 2.23763E-19
 -1        12 0.00000E+00 0.00000E+00 2.00010E-03 0.00000E+00 2.42075E-19 1.71784E-19
 -1        13 0.00000E+00 0.00000E+00 2.00010E-03 0.00000E+00-1.72104E-19-2.53389E-20
 -1        14 0.00000E+00 0.00000E+00 2.00010E-03 0.00000E+00 4.10158E-19 8.94127E-20
 -1        15 0.00000E+00 0.00000E+00 2.00010E-03 0.00000E+00-1.16356E-18 2.49269E-19
 -1        16 0.00000E+00 0.00000E+00 2.00010E-03 0.00000E+00 4.45153E-19 4.17991E-19
 -1        17 0.00000E+00 0.00000E+00 2.00010E-03 0.00000E+00-4.86716E-20 2.27507E-19
 -1        18 0.00000E+00 0.00000E+00 2.00010E-03 0.00000E+00 6.09490E-19-7.85158E-19
 -1        19 0.00000E+00 0.00000E+00 2.00010E-03 0.00000E+00 5.23083E-19-1.12112E-19
 -1        20 0.00000E+00 0.00000E+00 2.00010E-03 0.00000E+00 2.30452E-19 4.46960E-19
 -3
    1PSTEP                       959         192           1          
  100CL  292 418473.2004          20                     0  192           1
 -4  FORC        4    1
 -5  F1          1    2    1    0
 -5  F2          1    2    2    0
 -5  F3          1    2    3    0
 -5  ALL         1    2    0    0    1ALL
 -1         1-1.59719E+01-1.59719E+01 1.80562E+01
 -1         2-1.59719E+01 1.59719E+01 1.80562E+01
 -1         3-1.59719E+01 1.59719E+01-1.80562E+01
 -1         4-1.59719E+01-1.59719E+01-1.80562E+01
 -1         5 1.59719E+01-1.59719E+01 1.80562E+01
 -1         6 1.59719E+01 1.59719E+01 1.80562E+01
 -1         7 1.59719E+01 1.59719E+01-1.80562E+01
 -1         8 1.59719E+01-1.59719E+01-1.80562E+01
 -1         9 6.38876E+01-4.86574E-15-7.22248E+01
 -1        10 6.38876E+01-6.38876E+01 6.21725E-15
 -1        11 6.38876E+01 5.78168E-15 7.22248E+01
 -1        12 6.38876E+01 6.38876E+01 1.11022E-14
 -1        13-8.94319E-15 6.38876E+01-7.22248E+01
 -1        14 1.32763E-14-6.38876E+01-7.22248E+01
 -1        15 7.15184E-15-6.38876E+01 7.22248E+01
 -1        16 2.00430E-15 6.38876E+01 7.22248E+01
 -1        17-6.38876E+01 3.26363E-15-7.22248E+01
 -1        18-6.38876E+01-6.38876E+01-1.77636E-15
 -1        19-6.38876E+01 6.70432E-17 7.22248E+01
 -1        20-6.38876E+01 6.38876E+01 2.88658E-15
 -3
    1PSTEP                       960         192           1          
  100CL  292 418473.2004          20                     0  192           1
 -4  ERROR       1    1
 -5  STR(%)      1    1    0    0
 -1         1 8.05137E-15
 -1         2 8.05137E-15
 -1         3 8.05137E-15
 -1         4 8.05137E-15
 -1         5 8.05137E-15
 -1         6 8.05137E-15
 -1         7 8.05137E-15
 -1         8 8.05137E-15
 -1         9 8.05137E-15
 -1        10 8.05137E-15
 -1        11 8.05137E-15
 -1        12 8.05137E-15
 -1        13 8.05137E-15
 -1        14 8.05137E-15
 -1        15 8.05137E-15
 -1        16 8.05137E-15
 -1        17 8.05137E-15
 -1        18 8.05137E-15
 -1        19 8.05137E-15
 -1        20 8.05137E-15
 -3
    1PSTEP                       961         193           1          
  100CL  293 421605.5247          20                     0  193           1
 -4  DISP        4    1
 -5  D1          1    2    1    0
 -5  D2          1    2    2    0
 -5  D3          1    2    3    0
 -5  ALL         1    2    0    0    1ALL
 -1         1 0.00000E+00 0.00000E+00 0.00000E+00
 -1         2 0.00000E+00 0.00000E+00 0.00000E+00
 -1         3 0.00000E+00 0.00000E+00 2.00000E-03
 -1         4 0.00000E+00 0.00000E+00 2.00000E-03
 -1         5 0.00000E+00 0.00000E+00 0.00000E+00
 -1         6 0.00000E+00 0.00000E+00 0.00000E+00
 -1         7 0.00000E+00 0.00000E+00 2.00000E-03
 -1         8 0.00000E+00 0.00000E+00 2.00000E-03
 -1         9 0.00000E+00 0.00000E+00 0.00000E+00
 -1        10 0.00000E+00 0.00000E+00 1.00000E-03
 -1        11 0.00000E+00 0.00000E+00 2.00000E-03
 -1        12 0.00000E+00 0.00000E+00 1.00000E-03
 -1        13 0.00000E+00 0.00000E+00 0.00000E+00
 -1        14 0.00000E+00 0.00000E+00 0.00000E+00
 -1        15 0.00000E+00 0.00000E+00 2.00000E-03
 -1        16 0.00000E+00 0.00000E+00 2.00000E-03
 -1        17 0.00000E+00 0.00000E+00 0.00000E+00
 -1        18 0.00000E+00 0.00000E+00 1.00000E-03
 -1        19 0.00000E+00 0.00000E+00 2.00000E-03
 -1        20 0.00000E+00 0.00000E+00 1.00000E-03
 -3
    1PSTEP                       962         193           1          
  100CL  293 421605.5247          20                     0  193           1
 -4  STRESS      6    1
 -5  SXX         1    4    1    1
 -5  SYY         1    4    2    2
 -5  SZZ         1    4    3    3
 -5  SXY         1    4    1    2
 -5  SYZ         1    4    2    3
 -5  SZX         1    4    3    1
 -1         1 1.91759E+02 1.91759E+02 2.16458E+02 0.00000E+00 5.09504E-15 8.88063E-15
 -1         2 1.91759E+02 1.91759E+02 2.16458E+02 0.00000E+00-8.01331E-15-9.98751E-15
 -1         3 1.91759E+02 1.91759E+02 2.16458E+02 0.00000E+00-1.24631E-15-1.48018E-14
 -1         4 1.91759E+02 1.91759E+02 2.16458E+02 0.00000E+00-2.85121E-15 2.17529E-14
 -1         5 1.91759E+02 1.91759E+02 2.16458E+02 0.00000E+00 3.65763E-15-3.12738E-15
 -1         6 1.91759E+02 1.91759E+02 2.16458E+02 0.00000E+00-2.64117E-15 1.07053E-16
 -1         7 1.91759E+02 1.91759E+02 2.16458E+02 0.00000E+00 2.38641E-14 1.74519E-14
 -1         8 1.91759E+02 1.91759E+02 2.16458E+02 0.00000E+00-3.62471E-17-4.64995E-15
 -1         9 1.91776E+02 1.91776E+02 2.16478E+02 0.00000E+00-5.17222E-15-2.52677E-15
 -1        10 1.91776E+02 1.91776E+02 2.16478E+02 0.00000E+00 5.43910E-15 4.75789E-15
 -1        11 1.91776E+02 1.91776E+02 2.16478E+02 0.00000E+00 3.14433E-15 2.76353E-15
 -1        12 1.91776E+02 1.91776E+02 2.16478E+02 0.00000E+00 2.98968E-15 2.12158E-15
 -1        13 1.91776E+02 1.91776E+02 2.16478E+02 0.00000E+00-2.12553E-15-3.12942E-16
 -1        14 1.91776E+02 1.91776E+02 2.16478E+02 0.00000E+00 5.06555E-15 1.10427E-15
 -1        15 1.91776E+02 1.91776E+02 2.16478E+02 0.00000E+00-1.43703E-14 3.07853E-15
 -1        16 1.91776E+02 1.91776E+02 2.16478E+02 0.00000E+00 5.49774E-15 5.16228E-15
 -1        17 1.91776E+02 1.91776E+02 2.16478E+02 0.00000E+00-6.01106E-16 2.80976E-15
 -1        18 1.91776E+02 1.91776E+02 2.16478E+02 0.00000E+00 7.52735E-15-9.69689E-15
 -1        19 1.91776E+02 1.91776E+02 2.16478E+02 0.00000E+00 6.46020E-15-1.38461E-15
 -1        20 1.91776E+02 1.91776E+02 2.16478E+02 0.00000E+00 2.84613E-15 5.52006E-15
 -3
    1PSTEP                       963         193           1          
  100CL  293 421605.5247          20                     0  193           1
 -4  TOSTRAIN    6    1
 -5  EXX         1    4    1    1
 -5  EYY         1    4    2    2
 -5  EZZ         1    4    3    3
 -5  EXY         1    4    1    2
 -5  EYZ         1    4    2    3
 -5  EZX         1    4    3    1
 -1         1 0.00000E+00 0.00000E+00 1.99992E-03 0.00000E+00 4.12546E-19 7.19066E-19
 -1         2 0.00000E+00 0.00000E+00 1.99992E-03 0.00000E+00-6.48839E-19-8.08690E-19
 -1         3 0.00000E+00 0.00000E+00 1.99992E-03 0.00000E+00-1.00914E-19-1.19850E-18
 -1         4 0.00000E+00 0.00000E+00 1.99992E-03 0.00000E+00-2.30863E-19 1.76134E-18
 -1         5 0.00000E+00 0.00000E+00 1.99992E-03 0.00000E+00 2.96159E-19-2.53224E-19
 -1         6 0.00000E+00 0.00000E+00 1.99992E-03 0.00000E+00-2.13856E-19 8.66809E-21
 -1         7 0.00000E+00 0.00000E+00 1.99992E-03 0.00000E+00 1.93228E-18 1.41309E-18
 -1         8 0.00000E+00 0.00000E+00 1.99992E-03 0.00000E+00-2.93494E-21-3.76507E-19
 -1         9 0.00000E+00 0.00000E+00 2.00010E-03 0.00000E+00-4.18795E-19-2.04593E-19
 -1        10 0.00000E+00 0.00000E+00 2.00010E-03 0.00000E+00 4.40404E-19 3.85247E-19
 -1        11 0.00000E+00 0.00000E+00 2.00010E-03 0.00000E+00 2.54597E-19 2.23763E-19
 -1        12 0.00000E+00 0.00000E+00 2.00010E-03 0.00000E+00 2.42075E-19 1.71784E-19
 -1        13 0.00000E+00 0.00000E+00 2.00010E-03 0.00000E+00-1.72104E-19-2.53389E-20
 -1        14 0.00000E+00 0.00000E+00 2.00010E-03 0.00000E+00 4.10158E-19 8.94127E-20
 -1        15 0.00000E+00 0.00000E+00 2.00010E-03 0.00000E+00-1.16356E-18 2.49269E-19
 -1        16 0.00000E+00 0.00000E+00 2.00010E-03 0.00000E+00 4.45153E-19 4.17991E-19
 -1        17 0.00000E+00 0.00000E+00 2.00010E-03 0.00000E+00-4.86716E-20 2.27507E-19
 -1        18 0.00000E+00 0.00000E+00 2.00010E-03 0.00000E+00 6.09490E-19-7.85158E-19
 -1        19 0.00000E+00 0.00000E+00 2.00010E-03 0.00000E+00 5.23083E-19-1.12112E-19
 -1        20 0.00000E+00 0.00000E+00 2.00010E-03 0.00000E+00 2.30452E-19 4.46960E-19
 -3
    1PSTEP                       964         193           1          
  100CL  293 421605.5247          20                     0  193           1
 -4  FORC        4    1
 -5  F1          1    2    1    0
 -5  F2          1    2    2    0
 -5  F3          1    2    3    0
 -5  ALL         1    2    0    0    1ALL
 -1         1-1.59805E+01-1.59805E+01 1.80389E+01
 -1         2-1.59805E+01 1.59805E+01 1.80389E+01
 -1         3-1.59805E+01 1.59805E+01-1.80389E+01
 -1         4-1.59805E+01-1.59805E+01-1.80389E+01
 -1         5 1.59805E+01-1.59805E+01 1.80389E+01
 -1         6 1.59805E+01 1.59805E+01 1.80389E+01
 -1         7 1.59805E+01 1.59805E+01-1.80389E+01
 -1         8 1.59805E+01-1.59805E+01-1.80389E+01
 -1         9 6.39222E+01-8.44610E-15-7.21557E+01
 -1        10 6.39222E+01-6.39222E+01 7.99361E-15
 -1        11 6.39222E+01 6.00361E-15 7.21557E+01
 -1        12 6.39222E+01 6.39222E+01 9.40914E-15
 -1        13-9.80354E-15 6.39222E+01-7.21557E+01
 -1        14 8.39186E-15-6.39222E+01-7.21557E+01
 -1        15 3.59855E-15-6.39222E+01 7.21557E+01
 -1        16-8.20983E-15 6.39222E+01 7.21557E+01
 -1        17-6.39222E+01-6.62096E-17-7.21557E+01
 -1        18-6.39222E+01-6.39222E+01 5.32907E-15
 -1        19-6.39222E+01 6.62096E-17 7.21557E+01
 -1        20-6.39222E+01 6.39222E+01 1.99840E-15
 -3
    1PSTEP                       965         193           1          
  100CL  293 421605.5247          20                     0  193           1
 -4  ERROR       1    1
 -5  STR(%)      1    1    0    0
 -1         1 2.11551E-13
 -1         2 2.11551E-13
 -1         3 2.11551E-13
 -1         4 2.11551E-13
 -1         5 2.11551E-13
 -1         6 2.11551E-13
 -1         7 2.11551E-13
 -1         8 2.11551E-13
 -1         9 2.11551E-13
 -1        10 2.11551E-13
 -1        11 2.11551E-13
 -1        12 2.11551E-13
 -1        13 2.11551E-13
 -1        14 2.11551E-13
 -1        15 2.11551E-13
 -1        16 2.11551E-13
 -1        17 2.11551E-13
 -1        18 2.11551E-13
 -1        19 2.11551E-13
 -1        20 2.11551E-13
 -3
    1PSTEP                       966         194           1          
  100CL  294 426304.0110          20                     0  194           1
 -4  DISP        4    1
 -5  D1          1    2    1    0
 -5  D2          1    2    2    0
 -5  D3          1    2    3    0
 -5  ALL         1    2    0    0    1ALL
 -1         1 0.00000E+00 0.00000E+00 0.00000E+00
 -1         2 0.00000E+00 0.00000E+00 0.00000E+00
 -1         3 0.00000E+00 0.00000E+00 2.00000E-03
 -1         4 0.00000E+00 0.00000E+00 2.00000E-03
 -1         5 0.00000E+00 0.00000E+00 0.00000E+00
 -1         6 0.00000E+00 0.00000E+00 0.00000E+00
 -1         7 0.00000E+00 0.00000E+00 2.00000E-03
 -1         8 0.00000E+00 0.00000E+00 2.00000E-03
 -1         9 0.00000E+00 0.00000E+00 0.00000E+00
 -1        10 0.00000E+00 0.00000E+00 1.00000E-03
 -1        11 0.00000E+00 0.00000E+00 2.00000E-03
 -1        12 0.00000E+00 0.00000E+00 1.00000E-03
 -1        13 0.00000E+00 0.00000E+00 0.00000E+00
 -1        14 0.00000E+00 0.00000E+00 0.00000E+00
 -1        15 0.00000E+00 0.00000E+00 2.00000E-03
 -1        16 0.00000E+00 0.00000E+00 2.00000E-03
 -1        17 0.00000E+00 0.00000E+00 0.00000E+00
 -1        18 0.00000E+00 0.00000E+00 1.00000E-03
 -1        19 0.00000E+00 0.00000E+00 2.00000E-03
 -1        20 0.00000E+00 0.00000E+00 1.00000E-03
 -3
    1PSTEP                       967         194           1          
  100CL  294 426304.0110          20                     0  194           1
 -4  STRESS      6    1
 -5  SXX         1    4    1    1
 -5  SYY         1    4    2    2
 -5  SZZ         1    4    3    3
 -5  SXY         1    4    1    2
 -5  SYZ         1    4    2    3
 -5  SZX         1    4    3    1
 -1         1 1.91911E+02 1.91911E+02 2.16153E+02 0.00000E+00 5.00060E-15 8.71603E-15
 -1         2 1.91911E+02 1.91911E+02 2.16153E+02 0.00000E+00-7.86478E-15-9.80239E-15
 -1         3 1.91911E+02 1.91911E+02 2.16153E+02 0.00000E+00-1.22321E-15-1.45274E-14
 -1         4 1.91911E+02 1.91911E+02 2.16153E+02 0.00000E+00-2.79836E-15 2.13497E-14
 -1         5 1.91911E+02 1.91911E+02 2.16153E+02 0.00000E+00 3.58983E-15-3.06941E-15
 -1         6 1.91911E+02 1.91911E+02 2.16153E+02 0.00000E+00-2.59222E-15 1.05069E-16
 -1         7 1.91911E+02 1.91911E+02 2.16153E+02 0.00000E+00 2.34218E-14 1.71285E-14
 -1         8 1.91911E+02 1.91911E+02 2.16153E+02 0.00000E+00-3.55753E-17-4.56376E-15
 -1         9 1.91929E+02 1.91929E+02 2.16173E+02 0.00000E+00-5.07635E-15-2.47994E-15
 -1        10 1.91929E+02 1.91929E+02 2.16173E+02 0.00000E+00 5.33828E-15 4.66970E-15
 -1        11 1.91929E+02 1.91929E+02 2.16173E+02 0.00000E+00 3.08605E-15 2.71231E-15
 -1        12 1.91929E+02 1.91929E+02 2.16173E+02 0.00000E+00 2.93426E-15 2.08225E-15
 -1        13 1.91929E+02 1.91929E+02 2.16173E+02 0.00000E+00-2.08613E-15-3.07142E-16
 -1        14 1.91929E+02 1.91929E+02 2.16173E+02 0.00000E+00 4.97166E-15 1.08380E-15
 -1        15 1.91929E+02 1.91929E+02 2.16173E+02 0.00000E+00-1.41039E-14 3.02147E-15
 -1        16 1.91929E+02 1.91929E+02 2.16173E+02 0.00000E+00 5.39584E-15 5.06660E-15
 -1        17 1.91929E+02 1.91929E+02 2.16173E+02 0.00000E+00-5.89964E-16 2.75769E-15
 -1        18 1.91929E+02 1.91929E+02 2.16173E+02 0.00000E+00 7.38783E-15-9.51716E-15
 -1        19 1.91929E+02 1.91929E+02 2.16173E+02 0.00000E+00 6.34046E-15-1.35894E-15
 -1        20 1.91929E+02 1.91929E+02 2.16173E+02 0.00000E+00 2.79338E-15 5.41774E-15
 -3
    1PSTEP                       968         194           1          
  100CL  294 426304.0110          20                     0  194           1
 -4  TOSTRAIN    6    1
 -5  EXX         1    4    1    1
 -5  EYY         1    4    2    2
 -5  EZZ         1    4    3    3
 -5  EXY         1    4    1    2
 -5  EYZ         1    4    2    3
 -5  EZX         1    4    3    1
 -1         1 0.00000E+00 0.00000E+00 1.99992E-03 0.00000E+00 4.12546E-19 7.19066E-19
 -1         2 0.00000E+00 0.00000E+00 1.99992E-03 0.00000E+00-6.48839E-19-8.08690E-19
 -1         3 0.00000E+00 0.00000E+00 1.99992E-03 0.00000E+00-1.00914E-19-1.19850E-18
 -1         4 0.00000E+00 0.00000E+00 1.99992E-03 0.00000E+00-2.30863E-19 1.76134E-18
 -1         5 0.00000E+00 0.00000E+00 1.99992E-03 0.00000E+00 2.96159E-19-2.53224E-19
 -1         6 0.00000E+00 0.00000E+00 1.99992E-03 0.00000E+00-2.13856E-19 8.66809E-21
 -1         7 0.00000E+00 0.00000E+00 1.99992E-03 0.00000E+00 1.93228E-18 1.41309E-18
 -1         8 0.00000E+00 0.00000E+00 1.99992E-03 0.00000E+00-2.93494E-21-3.76507E-19
 -1         9 0.00000E+00 0.00000E+00 2.00010E-03 0.00000E+00-4.18795E-19-2.04593E-19
 -1        10 0.00000E+00 0.00000E+00 2.00010E-03 0.00000E+00 4.40404E-19 3.85247E-19
 -1        11 0.00000E+00 0.00000E+00 2.00010E-03 0.00000E+00 2.54597E-19 2.23763E-19
 -1        12 0.00000E+00 0.00000E+00 2.00010E-03 0.00000E+00 2.42075E-19 1.71784E-19
 -1        13 0.00000E+00 0.00000E+00 2.00010E-03 0.00000E+00-1.72104E-19-2.53389E-20
 -1        14 0.00000E+00 0.00000E+00 2.00010E-03 0.00000E+00 4.10158E-19 8.94127E-20
 -1        15 0.00000E+00 0.00000E+00 2.00010E-03 0.00000E+00-1.16356E-18 2.49269E-19
 -1        16 0.00000E+00 0.00000E+00 2.00010E-03 0.00000E+00 4.45153E-19 4.17991E-19
 -1        17 0.00000E+00 0.00000E+00 2.00010E-03 0.00000E+00-4.86716E-20 2.27507E-19
 -1        18 0.00000E+00 0.00000E+00 2.00010E-03 0.00000E+00 6.09490E-19-7.85158E-19
 -1        19 0.00000E+00 0.00000E+00 2.00010E-03 0.00000E+00 5.23083E-19-1.12112E-19
 -1        20 0.00000E+00 0.00000E+00 2.00010E-03 0.00000E+00 2.30452E-19 4.46960E-19
 -3
    1PSTEP                       969         194           1          
  100CL  294 426304.0110          20                     0  194           1
 -4  FORC        4    1
 -5  F1          1    2    1    0
 -5  F2          1    2    2    0
 -5  F3          1    2    3    0
 -5  ALL         1    2    0    0    1ALL
 -1         1-1.59933E+01-1.59933E+01 1.80135E+01
 -1         2-1.59933E+01 1.59933E+01 1.80135E+01
 -1         3-1.59933E+01 1.59933E+01-1.80135E+01
 -1         4-1.59933E+01-1.59933E+01-1.80135E+01
 -1         5 1.59933E+01-1.59933E+01 1.80135E+01
 -1         6 1.59933E+01 1.59933E+01 1.80135E+01
 -1         7 1.59933E+01 1.59933E+01-1.80135E+01
 -1         8 1.59933E+01-1.59933E+01-1.80135E+01
 -1         9 6.39730E+01-4.86548E-15-7.20539E+01
 -1        10 6.39730E+01-6.39730E+01 5.77316E-15
 -1        11 6.39730E+01 7.55777E-15 7.20539E+01
 -1        12 6.39730E+01 6.39730E+01 7.99361E-15
 -1        13-8.94301E-15 6.39730E+01-7.20539E+01
 -1        14 4.39590E-15-6.39730E+01-7.20539E+01
 -1        15 4.49878E-17-6.39730E+01 7.20539E+01
 -1        16-4.43518E-15 6.39730E+01 7.20539E+01
 -1        17-6.39730E+01 3.48773E-15-7.20539E+01
 -1        18-6.39730E+01-6.39730E+01 1.77636E-15
 -1        19-6.39730E+01 3.61770E-15 7.20539E+01
 -1        20-6.39730E+01 6.39730E+01 6.66134E-16
 -3
    1PSTEP                       970         194           1          
  100CL  294 426304.0110          20                     0  194           1
 -4  ERROR       1    1
 -5  STR(%)      1    1    0    0
 -1         1 3.36269E-15
 -1         2 3.36269E-15
 -1         3 3.36269E-15
 -1         4 3.36269E-15
 -1         5 3.36269E-15
 -1         6 3.36269E-15
 -1         7 3.36269E-15
 -1         8 3.36269E-15
 -1         9 3.36269E-15
 -1        10 3.36269E-15
 -1        11 3.36269E-15
 -1        12 3.36269E-15
 -1        13 3.36269E-15
 -1        14 3.36269E-15
 -1        15 3.36269E-15
 -1        16 3.36269E-15
 -1        17 3.36269E-15
 -1        18 3.36269E-15
 -1        19 3.36269E-15
 -1        20 3.36269E-15
 -3
    1PSTEP                       971         195           1          
  100CL  295 430201.4394          20                     0  195           1
 -4  DISP        4    1
 -5  D1          1    2    1    0
 -5  D2          1    2    2    0
 -5  D3          1    2    3    0
 -5  ALL         1    2    0    0    1ALL
 -1         1 0.00000E+00 0.00000E+00 0.00000E+00
 -1         2 0.00000E+00 0.00000E+00 0.00000E+00
 -1         3 0.00000E+00 0.00000E+00 2.00000E-03
 -1         4 0.00000E+00 0.00000E+00 2.00000E-03
 -1         5 0.00000E+00 0.00000E+00 0.00000E+00
 -1         6 0.00000E+00 0.00000E+00 0.00000E+00
 -1         7 0.00000E+00 0.00000E+00 2.00000E-03
 -1         8 0.00000E+00 0.00000E+00 2.00000E-03
 -1         9 0.00000E+00 0.00000E+00 0.00000E+00
 -1        10 0.00000E+00 0.00000E+00 1.00000E-03
 -1        11 0.00000E+00 0.00000E+00 2.00000E-03
 -1        12 0.00000E+00 0.00000E+00 1.00000E-03
 -1        13 0.00000E+00 0.00000E+00 0.00000E+00
 -1        14 0.00000E+00 0.00000E+00 0.00000E+00
 -1        15 0.00000E+00 0.00000E+00 2.00000E-03
 -1        16 0.00000E+00 0.00000E+00 2.00000E-03
 -1        17 0.00000E+00 0.00000E+00 0.00000E+00
 -1        18 0.00000E+00 0.00000E+00 1.00000E-03
 -1        19 0.00000E+00 0.00000E+00 2.00000E-03
 -1        20 0.00000E+00 0.00000E+00 1.00000E-03
 -3
    1PSTEP                       972         195           1          
  100CL  295 430201.4394          20                     0  195           1
 -4  STRESS      6    1
 -5  SXX         1    4    1    1
 -5  SYY         1    4    2    2
 -5  SZZ         1    4    3    3
 -5  SXY         1    4    1    2
 -5  SYZ         1    4    2    3
 -5  SZX         1    4    3    1
 -1         1 1.92036E+02 1.92036E+02 2.15904E+02 0.00000E+00 4.92348E-15 8.58159E-15
 -1         2 1.92036E+02 1.92036E+02 2.15904E+02 0.00000E+00-7.74348E-15-9.65120E-15
 -1         3 1.92036E+02 1.92036E+02 2.15904E+02 0.00000E+00-1.20434E-15-1.43034E-14
 -1         4 1.92036E+02 1.92036E+02 2.15904E+02 0.00000E+00-2.75520E-15 2.10204E-14
 -1         5 1.92036E+02 1.92036E+02 2.15904E+02 0.00000E+00 3.53446E-15-3.02207E-15
 -1         6 1.92036E+02 1.92036E+02 2.15904E+02 0.00000E+00-2.55224E-15 1.03448E-16
 -1         7 1.92036E+02 1.92036E+02 2.15904E+02 0.00000E+00 2.30606E-14 1.68643E-14
 -1         8 1.92036E+02 1.92036E+02 2.15904E+02 0.00000E+00-3.50266E-17-4.49337E-15
 -1         9 1.92053E+02 1.92053E+02 2.15923E+02 0.00000E+00-4.99805E-15-2.44169E-15
 -1        10 1.92053E+02 1.92053E+02 2.15923E+02 0.00000E+00 5.25595E-15 4.59768E-15
 -1        11 1.92053E+02 1.92053E+02 2.15923E+02 0.00000E+00 3.03845E-15 2.67047E-15
 -1        12 1.92053E+02 1.92053E+02 2.15923E+02 0.00000E+00 2.88901E-15 2.05014E-15
 -1        13 1.92053E+02 1.92053E+02 2.15923E+02 0.00000E+00-2.05395E-15-3.02404E-16
 -1        14 1.92053E+02 1.92053E+02 2.15923E+02 0.00000E+00 4.89498E-15 1.06708E-15
 -1        15 1.92053E+02 1.92053E+02 2.15923E+02 0.00000E+00-1.38864E-14 2.97487E-15
 -1        16 1.92053E+02 1.92053E+02 2.15923E+02 0.00000E+00 5.31262E-15 4.98846E-15
 -1        17 1.92053E+02 1.92053E+02 2.15923E+02 0.00000E+00-5.80865E-16 2.71515E-15
 -1        18 1.92053E+02 1.92053E+02 2.15923E+02 0.00000E+00 7.27388E-15-9.37037E-15
 -1        19 1.92053E+02 1.92053E+02 2.15923E+02 0.00000E+00 6.24267E-15-1.33798E-15
 -1        20 1.92053E+02 1.92053E+02 2.15923E+02 0.00000E+00 2.75029E-15 5.33418E-15
 -3
    1PSTEP                       973         195           1          
  100CL  295 430201.4394          20                     0  195           1
 -4  TOSTRAIN    6    1
 -5  EXX         1    4    1    1
 -5  EYY         1    4    2    2
 -5  EZZ         1    4    3    3
 -5  EXY         1    4    1    2
 -5  EYZ         1    4    2    3
 -5  EZX         1    4    3    1
 -1         1 0.00000E+00 0.00000E+00 1.99992E-03 0.00000E+00 4.12546E-19 7.19066E-19
 -1         2 0.00000E+00 0.00000E+00 1.99992E-03 0.00000E+00-6.48839E-19-8.08690E-19
 -1         3 0.00000E+00 0.00000E+00 1.99992E-03 0.00000E+00-1.00914E-19-1.19850E-18
 -1         4 0.00000E+00 0.00000E+00 1.99992E-03 0.00000E+00-2.30863E-19 1.76134E-18
 -1         5 0.00000E+00 0.00000E+00 1.99992E-03 0.00000E+00 2.96159E-19-2.53224E-19
 -1         6 0.00000E+00 0.00000E+00 1.99992E-03 0.00000E+00-2.13856E-19 8.66809E-21
 -1         7 0.00000E+00 0.00000E+00 1.99992E-03 0.00000E+00 1.93228E-18 1.41309E-18
 -1         8 0.00000E+00 0.00000E+00 1.99992E-03 0.00000E+00-2.93494E-21-3.76507E-19
 -1         9 0.00000E+00 0.00000E+00 2.00010E-03 0.00000E+00-4.18795E-19-2.04593E-19
 -1        10 0.00000E+00 0.00000E+00 2.00010E-03 0.00000E+00 4.40404E-19 3.85247E-19
 -1        11 0.00000E+00 0.00000E+00 2.00010E-03 0.00000E+00 2.54597E-19 2.23763E-19
 -1        12 0.00000E+00 0.00000E+00 2.00010E-03 0.00000E+00 2.42075E-19 1.71784E-19
 -1        13 0.00000E+00 0.00000E+00 2.00010E-03 0.00000E+00-1.72104E-19-2.53389E-20
 -1        14 0.00000E+00 0.00000E+00 2.00010E-03 0.00000E+00 4.10158E-19 8.94127E-20
 -1        15 0.00000E+00 0.00000E+00 2.00010E-03 0.00000E+00-1.16356E-18 2.49269E-19
 -1        16 0.00000E+00 0.00000E+00 2.00010E-03 0.00000E+00 4.45153E-19 4.17991E-19
 -1        17 0.00000E+00 0.00000E+00 2.00010E-03 0.00000E+00-4.86716E-20 2.27507E-19
 -1        18 0.00000E+00 0.00000E+00 2.00010E-03 0.00000E+00 6.09490E-19-7.85158E-19
 -1        19 0.00000E+00 0.00000E+00 2.00010E-03 0.00000E+00 5.23083E-19-1.12112E-19
 -1        20 0.00000E+00 0.00000E+00 2.00010E-03 0.00000E+00 2.30452E-19 4.46960E-19
 -3
    1PSTEP                       974         195           1          
  100CL  295 430201.4394          20                     0  195           1
 -4  FORC        4    1
 -5  F1          1    2    1    0
 -5  F2          1    2    2    0
 -5  F3          1    2    3    0
 -5  ALL         1    2    0    0    1ALL
 -1         1-1.60036E+01-1.60036E+01 1.79927E+01
 -1         2-1.60036E+01 1.60036E+01 1.79927E+01
 -1         3-1.60036E+01 1.60036E+01-1.79927E+01
 -1         4-1.60036E+01-1.60036E+01-1.79927E+01
 -1         5 1.60036E+01-1.60036E+01 1.79927E+01
 -1         6 1.60036E+01 1.60036E+01 1.79927E+01
 -1         7 1.60036E+01 1.60036E+01-1.79927E+01
 -1         8 1.60036E+01-1.60036E+01-1.79927E+01
 -1         9 6.40146E+01-7.33560E-15-7.19708E+01
 -1        10 6.40146E+01-6.40146E+01 5.77316E-15
 -1        11 6.40146E+01 8.12654E-18 7.19708E+01
 -1        12 6.40146E+01 6.40146E+01 8.35443E-15
 -1        13-3.38693E-16 6.40146E+01-7.19708E+01
 -1        14 1.92736E-14-6.40146E+01-7.19708E+01
 -1        15-1.73206E-15-6.40146E+01 7.19708E+01
 -1        16-2.65891E-15 6.40146E+01 7.19708E+01
 -1        17-6.40146E+01-6.39801E-17-7.19708E+01
 -1        18-6.40146E+01-6.40146E+01 1.77636E-15
 -1        19-6.40146E+01-5.26509E-15 7.19708E+01
 -1        20-6.40146E+01 6.40146E+01 5.77316E-15
 -3
    1PSTEP                       975         195           1          
  100CL  295 430201.4394          20                     0  195           1
 -4  ERROR       1    1
 -5  STR(%)      1    1    0    0
 -1         1 5.18452E-14
 -1         2 5.18452E-14
 -1         3 5.18452E-14
 -1         4 5.18452E-14
 -1         5 5.18452E-14
 -1         6 5.18452E-14
 -1         7 5.18452E-14
 -1         8 5.18452E-14
 -1         9 5.18452E-14
 -1        10 5.18452E-14
 -1        11 5.18452E-14
 -1        12 5.18452E-14
 -1        13 5.18452E-14
 -1        14 5.18452E-14
 -1        15 5.18452E-14
 -1        16 5.18452E-14
 -1        17 5.18452E-14
 -1        18 5.18452E-14
 -1        19 5.18452E-14
 -1        20 5.18452E-14
 -3
    1PSTEP                       976         196           1          
  100CL  296 432000.0000          20                     0  196           1
 -4  DISP        4    1
 -5  D1          1    2    1    0
 -5  D2          1    2    2    0
 -5  D3          1    2    3    0
 -5  ALL         1    2    0    0    1ALL
 -1         1 0.00000E+00 0.00000E+00 0.00000E+00
 -1         2 0.00000E+00 0.00000E+00 0.00000E+00
 -1         3 0.00000E+00 0.00000E+00 2.00000E-03
 -1         4 0.00000E+00 0.00000E+00 2.00000E-03
 -1         5 0.00000E+00 0.00000E+00 0.00000E+00
 -1         6 0.00000E+00 0.00000E+00 0.00000E+00
 -1         7 0.00000E+00 0.00000E+00 2.00000E-03
 -1         8 0.00000E+00 0.00000E+00 2.00000E-03
 -1         9 0.00000E+00 0.00000E+00 0.00000E+00
 -1        10 0.00000E+00 0.00000E+00 1.00000E-03
 -1        11 0.00000E+00 0.00000E+00 2.00000E-03
 -1        12 0.00000E+00 0.00000E+00 1.00000E-03
 -1        13 0.00000E+00 0.00000E+00 0.00000E+00
 -1        14 0.00000E+00 0.00000E+00 0.00000E+00
 -1        15 0.00000E+00 0.00000E+00 2.00000E-03
 -1        16 0.00000E+00 0.00000E+00 2.00000E-03
 -1        17 0.00000E+00 0.00000E+00 0.00000E+00
 -1        18 0.00000E+00 0.00000E+00 1.00000E-03
 -1        19 0.00000E+00 0.00000E+00 2.00000E-03
 -1        20 0.00000E+00 0.00000E+00 1.00000E-03
 -3
    1PSTEP                       977         196           1          
  100CL  296 432000.0000          20                     0  196           1
 -4  STRESS      6    1
 -5  SXX         1    4    1    1
 -5  SYY         1    4    2    2
 -5  SZZ         1    4    3    3
 -5  SXY         1    4    1    2
 -5  SYZ         1    4    2    3
 -5  SZX         1    4    3    1
 -1         1 1.92093E+02 1.92093E+02 2.15790E+02 0.00000E+00 4.88814E-15 8.52000E-15
 -1         2 1.92093E+02 1.92093E+02 2.15790E+02 0.00000E+00-7.68790E-15-9.58193E-15
 -1         3 1.92093E+02 1.92093E+02 2.15790E+02 0.00000E+00-1.19570E-15-1.42007E-14
 -1         4 1.92093E+02 1.92093E+02 2.15790E+02 0.00000E+00-2.73543E-15 2.08696E-14
 -1         5 1.92093E+02 1.92093E+02 2.15790E+02 0.00000E+00 3.50910E-15-3.00038E-15
 -1         6 1.92093E+02 1.92093E+02 2.15790E+02 0.00000E+00-2.53392E-15 1.02706E-16
 -1         7 1.92093E+02 1.92093E+02 2.15790E+02 0.00000E+00 2.28951E-14 1.67432E-14
 -1         8 1.92093E+02 1.92093E+02 2.15790E+02 0.00000E+00-3.47752E-17-4.46112E-15
 -1         9 1.92110E+02 1.92110E+02 2.15809E+02 0.00000E+00-4.96218E-15-2.42416E-15
 -1        10 1.92110E+02 1.92110E+02 2.15809E+02 0.00000E+00 5.21822E-15 4.56468E-15
 -1        11 1.92110E+02 1.92110E+02 2.15809E+02 0.00000E+00 3.01664E-15 2.65131E-15
 -1        12 1.92110E+02 1.92110E+02 2.15809E+02 0.00000E+00 2.86827E-15 2.03542E-15
 -1        13 1.92110E+02 1.92110E+02 2.15809E+02 0.00000E+00-2.03921E-15-3.00234E-16
 -1        14 1.92110E+02 1.92110E+02 2.15809E+02 0.00000E+00 4.85985E-15 1.05943E-15
 -1        15 1.92110E+02 1.92110E+02 2.15809E+02 0.00000E+00-1.37867E-14 2.95351E-15
 -1        16 1.92110E+02 1.92110E+02 2.15809E+02 0.00000E+00 5.27449E-15 4.95265E-15
 -1        17 1.92110E+02 1.92110E+02 2.15809E+02 0.00000E+00-5.76696E-16 2.69566E-15
 -1        18 1.92110E+02 1.92110E+02 2.15809E+02 0.00000E+00 7.22167E-15-9.30311E-15
 -1        19 1.92110E+02 1.92110E+02 2.15809E+02 0.00000E+00 6.19786E-15-1.32838E-15
 -1        20 1.92110E+02 1.92110E+02 2.15809E+02 0.00000E+00 2.73055E-15 5.29590E-15
 -3
    1PSTEP                       978         196           1          
  100CL  296 432000.0000          20                     0  196           1
 -4  TOSTRAIN    6    1
 -5  EXX         1    4    1    1
 -5  EYY         1    4    2    2
 -5  EZZ         1    4    3    3
 -5  EXY         1    4    1    2
 -5  EYZ         1    4    2    3
 -5  EZX         1    4    3    1
 -1         1 0.00000E+00 0.00000E+00 1.99992E-03 0.00000E+00 4.12546E-19 7.19066E-19
 -1         2 0.00000E+00 0.00000E+00 1.99992E-03 0.00000E+00-6.48839E-19-8.08690E-19
 -1         3 0.00000E+00 0.00000E+00 1.99992E-03 0.00000E+00-1.00914E-19-1.19850E-18
 -1         4 0.00000E+00 0.00000E+00 1.99992E-03 0.00000E+00-2.30863E-19 1.76134E-18
 -1         5 0.00000E+00 0.00000E+00 1.99992E-03 0.00000E+00 2.96159E-19-2.53224E-19
 -1         6 0.00000E+00 0.00000E+00 1.99992E-03 0.00000E+00-2.13856E-19 8.66809E-21
 -1         7 0.00000E+00 0.00000E+00 1.99992E-03 0.00000E+00 1.93228E-18 1.41309E-18
 -1         8 0.00000E+00 0.00000E+00 1.99992E-03 0.00000E+00-2.93494E-21-3.76507E-19
 -1         9 0.00000E+00 0.00000E+00 2.00010E-03 0.00000E+00-4.18795E-19-2.04593E-19
 -1        10 0.00000E+00 0.00000E+00 2.00010E-03 0.00000E+00 4.40404E-19 3.85247E-19
 -1        11 0.00000E+00 0.00000E+00 2.00010E-03 0.00000E+00 2.54597E-19 2.23763E-19
 -1        12 0.00000E+00 0.00000E+00 2.00010E-03 0.00000E+00 2.42075E-19 1.71784E-19
 -1        13 0.00000E+00 0.00000E+00 2.00010E-03 0.00000E+00-1.72104E-19-2.53389E-20
 -1        14 0.00000E+00 0.00000E+00 2.00010E-03 0.00000E+00 4.10158E-19 8.94127E-20
 -1        15 0.00000E+00 0.00000E+00 2.00010E-03 0.00000E+00-1.16356E-18 2.49269E-19
 -1        16 0.00000E+00 0.00000E+00 2.00010E-03 0.00000E+00 4.45153E-19 4.17991E-19
 -1        17 0.00000E+00 0.00000E+00 2.00010E-03 0.00000E+00-4.86716E-20 2.27507E-19
 -1        18 0.00000E+00 0.00000E+00 2.00010E-03 0.00000E+00 6.09490E-19-7.85158E-19
 -1        19 0.00000E+00 0.00000E+00 2.00010E-03 0.00000E+00 5.23083E-19-1.12112E-19
 -1        20 0.00000E+00 0.00000E+00 2.00010E-03 0.00000E+00 2.30452E-19 4.46960E-19
 -3
    1PSTEP                       979         196           1          
  100CL  296 432000.0000          20                     0  196           1
 -4  FORC        4    1
 -5  F1          1    2    1    0
 -5  F2          1    2    2    0
 -5  F3          1    2    3    0
 -5  ALL         1    2    0    0    1ALL
 -1         1-1.60084E+01-1.60084E+01 1.79832E+01
 -1         2-1.60084E+01 1.60084E+01 1.79832E+01
 -1         3-1.60084E+01 1.60084E+01-1.79832E+01
 -1         4-1.60084E+01-1.60084E+01-1.79832E+01
 -1         5 1.60084E+01-1.60084E+01 1.79832E+01
 -1         6 1.60084E+01 1.60084E+01 1.79832E+01
 -1         7 1.60084E+01 1.60084E+01-1.79832E+01
 -1         8 1.60084E+01-1.60084E+01-1.79832E+01
 -1         9 6.40336E+01-4.86529E-15-7.19328E+01
 -1        10 6.40336E+01-6.40336E+01 7.77156E-15
 -1        11 6.40336E+01 4.52157E-16 7.19328E+01
 -1        12 6.40336E+01 6.40336E+01 1.75693E-14
 -1        13-2.80890E-15 6.40336E+01-7.19328E+01
 -1        14 1.48330E-14-6.40336E+01-7.19328E+01
 -1        15 7.14940E-15-6.40336E+01 7.19328E+01
 -1        16-1.02085E-14 6.40336E+01 7.19328E+01
 -1        17-6.40336E+01 1.71284E-15-7.19328E+01
 -1        18-6.40336E+01-6.40336E+01-3.55271E-15
 -1        19-6.40336E+01-1.71284E-15 7.19328E+01
 -1        20-6.40336E+01 6.40336E+01 6.66134E-15
 -3
    1PSTEP                       980         196           1          
  100CL  296 432000.0000          20                     0  196           1
 -4  ERROR       1    1
 -5  STR(%)      1    1    0    0
 -1         1 5.18727E-14
 -1         2 5.18727E-14
 -1         3 5.18727E-14
 -1         4 5.18727E-14
 -1         5 5.18727E-14
 -1         6 5.18727E-14
 -1         7 5.18727E-14
 -1         8 5.18727E-14
 -1         9 5.18727E-14
 -1        10 5.18727E-14
 -1        11 5.18727E-14
 -1        12 5.18727E-14
 -1        13 5.18727E-14
 -1        14 5.18727E-14
 -1        15 5.18727E-14
 -1        16 5.18727E-14
 -1        17 5.18727E-14
 -1        18 5.18727E-14
 -1        19 5.18727E-14
 -1        20 5.18727E-14
 -3
 9999
